c Reachability CNF generated by lab1_parser_jkhare.cpp
c File: verilog_src/ex3.v
c Unroll k = 15
c Target at time k = 00000000010110110000011000001
p cnf 9074 22843
31 47 0
-31 -47 0
32 48 0
-32 -48 0
33 49 0
-33 -49 0
34 50 0
-34 -50 0
35 51 0
-35 -51 0
37 52 0
-37 -52 0
39 53 0
-39 -53 0
40 54 0
-40 -54 0
41 55 0
-41 -55 0
42 56 0
-42 -56 0
43 57 0
-43 -57 0
44 58 0
-44 -58 0
45 59 0
-45 -59 0
46 60 0
-46 -60 0
29 61 0
-29 -61 0
28 62 0
-28 -62 0
27 63 0
-27 -63 0
26 64 0
-26 -64 0
25 65 0
-25 -65 0
24 66 0
-24 -66 0
-29 -63 67 0
29 -67 0
63 -67 0
-64 -67 68 0
64 -68 0
67 -68 0
-56 -57 69 0
56 -69 0
57 -69 0
69 70 0
-69 -70 0
-62 -70 71 0
62 -71 0
70 -71 0
-68 -71 72 0
68 -72 0
71 -72 0
-24 -72 73 0
24 -73 0
72 -73 0
73 74 0
-73 -74 0
-62 -68 75 0
62 -75 0
68 -75 0
-49 -75 76 0
49 -76 0
75 -76 0
-47 -76 77 0
47 -77 0
76 -77 0
77 78 0
-77 -78 0
-74 -78 79 0
74 -79 0
78 -79 0
-65 -68 80 0
65 -80 0
68 -80 0
-28 -66 81 0
28 -81 0
66 -81 0
-80 -81 82 0
80 -82 0
81 -82 0
82 83 0
-82 -83 0
-58 -59 84 0
58 -84 0
59 -84 0
84 85 0
-84 -85 0
-36 -63 86 0
36 -86 0
63 -86 0
86 87 0
-86 -87 0
-61 -62 88 0
61 -88 0
62 -88 0
-26 -66 89 0
26 -89 0
66 -89 0
-88 -89 90 0
88 -90 0
89 -90 0
-65 -90 91 0
65 -91 0
90 -91 0
-86 -91 92 0
86 -92 0
91 -92 0
-85 -92 93 0
85 -93 0
92 -93 0
93 94 0
-93 -94 0
-83 -94 95 0
83 -95 0
94 -95 0
-79 -95 96 0
79 -96 0
95 -96 0
-65 -66 97 0
65 -97 0
66 -97 0
97 98 0
-97 -98 0
-25 -24 99 0
25 -99 0
24 -99 0
99 100 0
-99 -100 0
-98 -100 101 0
98 -101 0
100 -101 0
-26 -67 102 0
26 -102 0
67 -102 0
-101 -102 103 0
101 -103 0
102 -103 0
103 104 0
-103 -104 0
-44 -80 105 0
44 -105 0
80 -105 0
105 106 0
-105 -106 0
-66 -105 107 0
66 -107 0
105 -107 0
107 108 0
-107 -108 0
-104 -108 109 0
104 -109 0
108 -109 0
-33 -34 110 0
33 -110 0
34 -110 0
110 111 0
-110 -111 0
-60 -80 112 0
60 -112 0
80 -112 0
112 113 0
-112 -113 0
-65 -24 114 0
65 -114 0
24 -114 0
-67 -114 115 0
67 -115 0
114 -115 0
115 116 0
-115 -116 0
-113 -116 117 0
113 -117 0
116 -117 0
117 118 0
-117 -118 0
-111 -118 119 0
111 -119 0
118 -119 0
119 120 0
-119 -120 0
-44 -72 121 0
44 -121 0
72 -121 0
121 122 0
-121 -122 0
-120 -122 123 0
120 -123 0
122 -123 0
-58 -62 124 0
58 -124 0
62 -124 0
124 125 0
-124 -125 0
-101 -124 126 0
101 -126 0
124 -126 0
-67 -126 127 0
67 -127 0
126 -127 0
127 128 0
-127 -128 0
-31 -32 129 0
31 -129 0
32 -129 0
129 130 0
-129 -130 0
-66 -68 131 0
66 -131 0
68 -131 0
-46 -131 132 0
46 -132 0
131 -132 0
132 133 0
-132 -133 0
-25 -66 134 0
25 -134 0
66 -134 0
-63 -134 135 0
63 -135 0
134 -135 0
-29 -135 136 0
29 -136 0
135 -136 0
136 137 0
-136 -137 0
-133 -137 138 0
133 -138 0
137 -138 0
138 139 0
-138 -139 0
-130 -139 140 0
130 -140 0
139 -140 0
140 141 0
-140 -141 0
-128 -141 142 0
128 -142 0
141 -142 0
-123 -142 143 0
123 -143 0
142 -143 0
-109 -143 144 0
109 -144 0
143 -144 0
-96 -144 145 0
96 -145 0
144 -145 0
145 146 0
-145 -146 0
-48 -134 147 0
48 -147 0
134 -147 0
147 148 0
-147 -148 0
-50 -114 149 0
50 -149 0
114 -149 0
149 150 0
-149 -150 0
-148 -150 151 0
148 -151 0
150 -151 0
151 152 0
-151 -152 0
-67 -152 153 0
67 -153 0
152 -153 0
153 154 0
-153 -154 0
-104 -154 155 0
104 -155 0
154 -155 0
155 156 0
-155 -156 0
-28 -156 157 0
28 -157 0
156 -157 0
157 158 0
-157 -158 0
-33 -50 159 0
33 -159 0
50 -159 0
159 160 0
-159 -160 0
-39 -160 161 0
39 -161 0
160 -161 0
161 162 0
-161 -162 0
-62 -69 163 0
62 -163 0
69 -163 0
-105 -163 164 0
105 -164 0
163 -164 0
-66 -164 165 0
66 -165 0
164 -165 0
-32 -165 166 0
32 -166 0
165 -166 0
166 167 0
-166 -167 0
-162 -166 168 0
162 -168 0
166 -168 0
-46 -168 169 0
46 -169 0
168 -169 0
169 170 0
-169 -170 0
-158 -170 171 0
158 -171 0
170 -171 0
-51 -82 172 0
51 -172 0
82 -172 0
172 173 0
-172 -173 0
-31 -48 174 0
31 -174 0
48 -174 0
174 175 0
-174 -175 0
-40 -175 176 0
40 -176 0
175 -176 0
176 177 0
-176 -177 0
-165 -177 178 0
165 -178 0
177 -178 0
-59 -60 179 0
59 -179 0
60 -179 0
179 180 0
-179 -180 0
-45 -46 181 0
45 -181 0
46 -181 0
181 182 0
-181 -182 0
-180 -182 183 0
180 -183 0
182 -183 0
183 184 0
-183 -184 0
-34 -183 185 0
34 -185 0
183 -185 0
185 186 0
-185 -186 0
-161 -186 187 0
161 -187 0
186 -187 0
187 188 0
-187 -188 0
-178 -188 189 0
178 -189 0
188 -189 0
189 190 0
-189 -190 0
-173 -190 191 0
173 -191 0
190 -191 0
-171 -191 192 0
171 -192 0
191 -192 0
192 193 0
-192 -193 0
-66 -69 194 0
66 -194 0
69 -194 0
-110 -194 195 0
110 -195 0
194 -195 0
195 196 0
-195 -196 0
-63 -196 197 0
63 -197 0
196 -197 0
197 198 0
-197 -198 0
-65 -198 199 0
65 -199 0
198 -199 0
-88 -199 200 0
88 -200 0
199 -200 0
-64 -200 201 0
64 -201 0
200 -201 0
201 202 0
-201 -202 0
-27 -88 203 0
27 -203 0
88 -203 0
-114 -203 204 0
114 -204 0
203 -204 0
204 205 0
-204 -205 0
-64 -203 206 0
64 -206 0
203 -206 0
-24 -206 207 0
24 -207 0
206 -207 0
207 208 0
-207 -208 0
-52 -207 209 0
52 -209 0
207 -209 0
209 210 0
-209 -210 0
-205 -210 211 0
205 -211 0
210 -211 0
-25 -90 212 0
25 -212 0
90 -212 0
212 213 0
-212 -213 0
-27 -212 214 0
27 -214 0
212 -214 0
214 215 0
-214 -215 0
-211 -215 216 0
211 -216 0
215 -216 0
-202 -216 217 0
202 -217 0
216 -217 0
217 218 0
-217 -218 0
-56 -44 219 0
56 -219 0
44 -219 0
-57 -219 220 0
57 -220 0
219 -220 0
220 221 0
-220 -221 0
-62 -221 222 0
62 -222 0
221 -222 0
222 223 0
-222 -223 0
-25 -223 224 0
25 -224 0
223 -224 0
-131 -224 225 0
131 -225 0
224 -225 0
-174 -225 226 0
174 -226 0
225 -226 0
226 227 0
-226 -227 0
-24 -223 228 0
24 -228 0
223 -228 0
-80 -228 229 0
80 -229 0
228 -229 0
-159 -229 230 0
159 -230 0
229 -230 0
230 231 0
-230 -231 0
-227 -231 232 0
227 -232 0
231 -232 0
-62 -65 233 0
62 -233 0
65 -233 0
-63 -64 234 0
63 -234 0
64 -234 0
-233 -234 235 0
233 -235 0
234 -235 0
-61 -195 236 0
61 -236 0
195 -236 0
-235 -236 237 0
235 -237 0
236 -237 0
237 238 0
-237 -238 0
-90 -87 239 0
90 -239 0
87 -239 0
239 240 0
-239 -240 0
-238 -240 241 0
238 -241 0
240 -241 0
-25 -207 242 0
25 -242 0
207 -242 0
242 243 0
-242 -243 0
-51 -103 244 0
51 -244 0
103 -244 0
244 245 0
-244 -245 0
-243 -245 246 0
243 -246 0
245 -246 0
-241 -246 247 0
241 -247 0
246 -247 0
-232 -247 248 0
232 -248 0
247 -248 0
-213 -248 249 0
213 -249 0
248 -249 0
249 250 0
-249 -250 0
-34 -39 251 0
34 -251 0
39 -251 0
-44 -131 252 0
44 -252 0
131 -252 0
252 253 0
-252 -253 0
-31 -252 254 0
31 -254 0
252 -254 0
-163 -254 255 0
163 -255 0
254 -255 0
-65 -255 256 0
65 -256 0
255 -256 0
256 257 0
-256 -257 0
-167 -257 258 0
167 -258 0
257 -258 0
258 259 0
-258 -259 0
-251 -259 260 0
251 -260 0
259 -260 0
260 261 0
-260 -261 0
-54 -165 262 0
54 -262 0
165 -262 0
262 263 0
-262 -263 0
-251 -262 264 0
251 -264 0
262 -264 0
264 265 0
-264 -265 0
-261 -265 266 0
261 -266 0
265 -266 0
-51 -58 267 0
51 -267 0
58 -267 0
267 268 0
-267 -268 0
-44 -70 269 0
44 -269 0
70 -269 0
269 270 0
-269 -270 0
-268 -270 271 0
268 -271 0
270 -271 0
271 272 0
-271 -272 0
-62 -272 273 0
62 -273 0
272 -273 0
273 274 0
-273 -274 0
-64 -274 275 0
64 -275 0
274 -275 0
-125 -130 276 0
125 -276 0
130 -276 0
276 277 0
-276 -277 0
-275 -277 278 0
275 -278 0
277 -278 0
278 279 0
-278 -279 0
-136 -279 280 0
136 -280 0
279 -280 0
280 281 0
-280 -281 0
-49 -34 282 0
49 -282 0
34 -282 0
-229 -282 283 0
229 -283 0
282 -283 0
283 284 0
-283 -284 0
-281 -284 285 0
281 -285 0
284 -285 0
-266 -285 286 0
266 -286 0
285 -286 0
-60 -159 287 0
60 -287 0
159 -287 0
287 288 0
-287 -288 0
-46 -174 289 0
46 -289 0
174 -289 0
289 290 0
-289 -290 0
-288 -290 291 0
288 -291 0
290 -291 0
291 292 0
-291 -292 0
-58 -131 293 0
58 -293 0
131 -293 0
-57 -293 294 0
57 -294 0
293 -294 0
-42 -294 295 0
42 -295 0
294 -295 0
-233 -295 296 0
233 -296 0
295 -296 0
-292 -296 297 0
292 -297 0
296 -297 0
297 298 0
-297 -298 0
-51 -214 299 0
51 -299 0
214 -299 0
299 300 0
-299 -300 0
-298 -300 301 0
298 -301 0
300 -301 0
-25 -73 302 0
25 -302 0
73 -302 0
302 303 0
-302 -303 0
-62 -135 304 0
62 -304 0
135 -304 0
-26 -304 305 0
26 -305 0
304 -305 0
-130 -305 306 0
130 -306 0
305 -306 0
306 307 0
-306 -307 0
-303 -307 308 0
303 -308 0
307 -308 0
-301 -308 309 0
301 -309 0
308 -309 0
-208 -309 310 0
208 -310 0
309 -310 0
-286 -310 311 0
286 -311 0
310 -311 0
311 312 0
-311 -312 0
-49 -50 313 0
49 -313 0
50 -313 0
313 314 0
-313 -314 0
-39 -313 315 0
39 -315 0
313 -315 0
315 316 0
-315 -316 0
-40 -166 317 0
40 -317 0
166 -317 0
-316 -317 318 0
316 -318 0
317 -318 0
318 319 0
-318 -319 0
-303 -319 320 0
303 -320 0
319 -320 0
-233 -293 321 0
233 -321 0
293 -321 0
321 322 0
-321 -322 0
-56 -321 323 0
56 -323 0
321 -323 0
-292 -323 324 0
292 -324 0
323 -324 0
324 325 0
-324 -325 0
-202 -325 326 0
202 -326 0
325 -326 0
-47 -32 327 0
47 -327 0
32 -327 0
-225 -327 328 0
225 -328 0
327 -328 0
328 329 0
-328 -329 0
-111 -125 330 0
111 -330 0
125 -330 0
330 331 0
-330 -331 0
-275 -331 332 0
275 -332 0
331 -332 0
332 333 0
-332 -333 0
-115 -333 334 0
115 -334 0
333 -334 0
334 335 0
-334 -335 0
-329 -335 336 0
329 -336 0
335 -336 0
-326 -336 337 0
326 -337 0
336 -337 0
-320 -337 338 0
320 -338 0
337 -338 0
338 339 0
-338 -339 0
-102 -134 340 0
102 -340 0
134 -340 0
340 341 0
-340 -341 0
-83 -341 342 0
83 -342 0
341 -342 0
-58 -114 343 0
58 -343 0
114 -343 0
343 344 0
-343 -344 0
-62 -67 345 0
62 -345 0
67 -345 0
-343 -345 346 0
343 -346 0
345 -346 0
346 347 0
-346 -347 0
-46 -64 348 0
46 -348 0
64 -348 0
-346 -348 349 0
346 -349 0
348 -349 0
349 350 0
-349 -350 0
-58 -29 351 0
58 -351 0
29 -351 0
-304 -351 352 0
304 -352 0
351 -352 0
-46 -352 353 0
46 -353 0
352 -353 0
353 354 0
-353 -354 0
-350 -354 355 0
350 -355 0
354 -355 0
-342 -355 356 0
342 -356 0
355 -356 0
356 357 0
-356 -357 0
-102 -114 358 0
102 -358 0
114 -358 0
358 359 0
-358 -359 0
-83 -359 360 0
83 -360 0
359 -360 0
-64 -352 361 0
64 -361 0
352 -361 0
361 362 0
-361 -362 0
-347 -362 363 0
347 -363 0
362 -363 0
363 364 0
-363 -364 0
-60 -364 365 0
60 -365 0
364 -365 0
365 366 0
-365 -366 0
-64 -25 367 0
64 -367 0
25 -367 0
367 368 0
-367 -368 0
-66 -368 369 0
66 -369 0
368 -369 0
-203 -369 370 0
203 -370 0
369 -370 0
370 371 0
-370 -371 0
-366 -371 372 0
366 -372 0
371 -372 0
-208 -372 373 0
208 -373 0
372 -373 0
-360 -373 374 0
360 -374 0
373 -374 0
374 375 0
-374 -375 0
-48 -255 376 0
48 -376 0
255 -376 0
376 377 0
-376 -377 0
-162 -376 378 0
162 -378 0
376 -378 0
-40 -378 379 0
40 -379 0
378 -379 0
379 380 0
-379 -380 0
-227 -380 381 0
227 -381 0
380 -381 0
-47 -48 382 0
47 -382 0
48 -382 0
382 383 0
-382 -383 0
-130 -383 384 0
130 -384 0
383 -384 0
-321 -384 385 0
321 -385 0
384 -385 0
-42 -43 386 0
42 -386 0
43 -386 0
386 387 0
-386 -387 0
-46 -387 388 0
46 -388 0
387 -388 0
-385 -388 389 0
385 -389 0
388 -389 0
389 390 0
-389 -390 0
-47 -56 391 0
47 -391 0
56 -391 0
-57 -75 392 0
57 -392 0
75 -392 0
-49 -392 393 0
49 -393 0
392 -393 0
-99 -393 394 0
99 -394 0
393 -394 0
-391 -394 395 0
391 -395 0
394 -395 0
395 396 0
-395 -396 0
-390 -396 397 0
390 -397 0
396 -397 0
-381 -397 398 0
381 -398 0
397 -398 0
-129 -212 399 0
129 -399 0
212 -399 0
-63 -399 400 0
63 -400 0
399 -400 0
400 401 0
-400 -401 0
-398 -401 402 0
398 -402 0
401 -402 0
402 403 0
-402 -403 0
-66 -124 404 0
66 -404 0
124 -404 0
-112 -404 405 0
112 -405 0
404 -405 0
-159 -405 406 0
159 -406 0
405 -406 0
406 407 0
-406 -407 0
-282 -405 408 0
282 -408 0
405 -408 0
408 409 0
-408 -409 0
-407 -409 410 0
407 -410 0
409 -410 0
410 411 0
-410 -411 0
-387 -411 412 0
387 -412 0
411 -412 0
412 413 0
-412 -413 0
-396 -413 414 0
396 -414 0
413 -414 0
-164 -177 415 0
164 -415 0
177 -415 0
-159 -415 416 0
159 -416 0
415 -416 0
416 417 0
-416 -417 0
-39 -416 418 0
39 -418 0
416 -418 0
418 419 0
-418 -419 0
-238 -419 420 0
238 -420 0
419 -420 0
-231 -420 421 0
231 -421 0
420 -421 0
-414 -421 422 0
414 -422 0
421 -422 0
422 423 0
-422 -423 0
-208 -371 424 0
208 -424 0
371 -424 0
424 425 0
-424 -425 0
-29 -305 426 0
29 -426 0
305 -426 0
426 427 0
-426 -427 0
-46 -82 428 0
46 -428 0
82 -428 0
428 429 0
-428 -429 0
-427 -429 430 0
427 -430 0
429 -430 0
-60 -352 431 0
60 -431 0
352 -431 0
431 432 0
-431 -432 0
-350 -432 433 0
350 -433 0
432 -433 0
-430 -433 434 0
430 -434 0
433 -434 0
434 435 0
-434 -435 0
-45 -82 436 0
45 -436 0
82 -436 0
436 437 0
-436 -437 0
-62 -103 438 0
62 -438 0
103 -438 0
438 439 0
-438 -439 0
-128 -439 440 0
128 -440 0
439 -440 0
-437 -440 441 0
437 -441 0
440 -441 0
441 442 0
-441 -442 0
-44 -92 443 0
44 -443 0
92 -443 0
443 444 0
-443 -444 0
-238 -444 445 0
238 -445 0
444 -445 0
-31 -147 446 0
31 -446 0
147 -446 0
446 447 0
-446 -447 0
-33 -149 448 0
33 -448 0
149 -448 0
448 449 0
-448 -449 0
-447 -449 450 0
447 -450 0
449 -450 0
450 451 0
-450 -451 0
-392 -451 452 0
392 -452 0
451 -452 0
-219 -452 453 0
219 -453 0
452 -453 0
453 454 0
-453 -454 0
-322 -396 455 0
322 -455 0
396 -455 0
-454 -455 456 0
454 -456 0
455 -456 0
-445 -456 457 0
445 -457 0
456 -457 0
457 458 0
-457 -458 0
-26 -101 459 0
26 -459 0
101 -459 0
459 460 0
-459 -460 0
-344 -460 461 0
344 -461 0
460 -461 0
461 462 0
-461 -462 0
-345 -462 463 0
345 -463 0
462 -463 0
463 464 0
-463 -464 0
-215 -464 465 0
215 -465 0
464 -465 0
-65 -206 466 0
65 -466 0
206 -466 0
466 467 0
-466 -467 0
-83 -467 468 0
83 -468 0
467 -468 0
-208 -468 469 0
208 -469 0
468 -469 0
-465 -469 470 0
465 -470 0
469 -470 0
470 471 0
-470 -471 0
-83 -362 472 0
83 -472 0
362 -472 0
472 473 0
-472 -473 0
-44 -235 474 0
44 -474 0
235 -474 0
-66 -474 475 0
66 -475 0
474 -475 0
475 476 0
-475 -476 0
-112 -387 477 0
112 -477 0
387 -477 0
477 478 0
-477 -478 0
-106 -478 479 0
106 -479 0
478 -479 0
479 480 0
-479 -480 0
-50 -480 481 0
50 -481 0
480 -481 0
481 482 0
-481 -482 0
-476 -482 483 0
476 -483 0
482 -483 0
-132 -387 484 0
132 -484 0
387 -484 0
484 485 0
-484 -485 0
-253 -485 486 0
253 -486 0
485 -486 0
486 487 0
-486 -487 0
-48 -487 488 0
48 -488 0
487 -488 0
488 489 0
-488 -489 0
-97 -88 490 0
97 -490 0
88 -490 0
490 491 0
-490 -491 0
-489 -491 492 0
489 -492 0
491 -492 0
-208 -492 493 0
208 -493 0
492 -493 0
-483 -493 494 0
483 -494 0
493 -494 0
494 495 0
-494 -495 0
-60 -293 496 0
60 -496 0
293 -496 0
-34 -56 497 0
34 -497 0
56 -497 0
-496 -497 498 0
496 -498 0
497 -498 0
498 499 0
-498 -499 0
-24 -76 500 0
24 -500 0
76 -500 0
500 501 0
-500 -501 0
-499 -501 502 0
499 -502 0
501 -502 0
-32 -46 503 0
32 -503 0
46 -503 0
503 504 0
-503 -504 0
-49 -60 505 0
49 -505 0
60 -505 0
505 506 0
-505 -506 0
-504 -506 507 0
504 -507 0
506 -507 0
507 508 0
-507 -508 0
-294 -508 509 0
294 -509 0
508 -509 0
509 510 0
-509 -510 0
-491 -510 511 0
491 -511 0
510 -511 0
-132 -391 512 0
132 -512 0
391 -512 0
-58 -512 513 0
58 -513 0
512 -513 0
513 514 0
-513 -514 0
-208 -514 515 0
208 -515 0
514 -515 0
-511 -515 516 0
511 -516 0
515 -516 0
-502 -516 517 0
502 -517 0
516 -517 0
517 518 0
-517 -518 0
-26 -97 519 0
26 -519 0
97 -519 0
519 520 0
-519 -520 0
-64 -99 521 0
64 -521 0
99 -521 0
-37 -521 522 0
37 -522 0
521 -522 0
522 523 0
-522 -523 0
-520 -523 524 0
520 -524 0
523 -524 0
524 525 0
-524 -525 0
-203 -525 526 0
203 -526 0
525 -526 0
526 527 0
-526 -527 0
-263 -377 528 0
263 -528 0
377 -528 0
528 529 0
-528 -529 0
-53 -529 530 0
53 -530 0
529 -530 0
530 531 0
-530 -531 0
-417 -531 532 0
417 -532 0
531 -532 0
-46 -323 533 0
46 -533 0
323 -533 0
-384 -533 534 0
384 -534 0
533 -534 0
534 535 0
-534 -535 0
-111 -314 536 0
111 -536 0
314 -536 0
-405 -536 537 0
405 -537 0
536 -537 0
-56 -537 538 0
56 -538 0
537 -538 0
538 539 0
-538 -539 0
-535 -539 540 0
535 -540 0
539 -540 0
-396 -454 541 0
396 -541 0
454 -541 0
-540 -541 542 0
540 -542 0
541 -542 0
-532 -542 543 0
532 -543 0
542 -543 0
-527 -543 544 0
527 -544 0
543 -544 0
544 545 0
-544 -545 0
-58 -46 546 0
58 -546 0
46 -546 0
-47 -42 547 0
47 -547 0
42 -547 0
-546 -547 548 0
546 -548 0
547 -548 0
548 549 0
-548 -549 0
-53 -60 550 0
53 -550 0
60 -550 0
-219 -550 551 0
219 -551 0
550 -551 0
-40 -551 552 0
40 -552 0
551 -552 0
552 553 0
-552 -553 0
-549 -553 554 0
549 -554 0
553 -554 0
554 555 0
-554 -555 0
-32 -555 556 0
32 -556 0
555 -556 0
-392 -556 557 0
392 -557 0
556 -557 0
-97 -557 558 0
97 -558 0
557 -558 0
558 559 0
-558 -559 0
-184 -264 560 0
184 -560 0
264 -560 0
560 561 0
-560 -561 0
-559 -561 562 0
559 -562 0
561 -562 0
-60 -536 563 0
60 -563 0
536 -563 0
563 564 0
-563 -564 0
-290 -564 565 0
290 -565 0
564 -565 0
565 566 0
-565 -566 0
-296 -566 567 0
296 -567 0
566 -567 0
567 568 0
-567 -568 0
-562 -568 569 0
562 -569 0
568 -569 0
569 570 0
-569 -570 0
-55 -70 571 0
55 -571 0
70 -571 0
-56 -408 572 0
56 -572 0
408 -572 0
572 573 0
-572 -573 0
-327 -533 574 0
327 -574 0
533 -574 0
574 575 0
-574 -575 0
-396 -575 576 0
396 -576 0
575 -576 0
-38 -82 577 0
38 -577 0
82 -577 0
577 578 0
-577 -578 0
-464 -578 579 0
464 -579 0
578 -579 0
579 580 0
-579 -580 0
-35 -580 581 0
35 -581 0
580 -581 0
581 582 0
-581 -582 0
-527 -582 583 0
527 -583 0
582 -583 0
-576 -583 584 0
576 -584 0
583 -584 0
-573 -584 585 0
573 -585 0
584 -585 0
585 586 0
-585 -586 0
-35 -361 587 0
35 -587 0
361 -587 0
587 588 0
-587 -588 0
-559 -588 589 0
559 -589 0
588 -589 0
-57 -408 590 0
57 -590 0
408 -590 0
-42 -590 591 0
42 -591 0
590 -591 0
591 592 0
-591 -592 0
-561 -592 593 0
561 -593 0
592 -593 0
-589 -593 594 0
589 -594 0
593 -594 0
594 595 0
-594 -595 0
-55 -43 596 0
55 -596 0
43 -596 0
-55 -57 597 0
55 -597 0
57 -597 0
-27 -64 598 0
27 -598 0
64 -598 0
-490 -598 599 0
490 -599 0
598 -599 0
-317 -550 600 0
317 -600 0
550 -600 0
600 601 0
-600 -601 0
-561 -601 602 0
561 -602 0
601 -602 0
602 603 0
-602 -603 0
-604 603 0
604 -603 0
-605 599 0
605 -599 0
-606 597 0
606 -597 0
-607 596 0
607 -596 0
-608 595 0
608 -595 0
-609 586 0
609 -586 0
-610 571 0
610 -571 0
-611 570 0
611 -570 0
-612 545 0
612 -545 0
-613 518 0
613 -518 0
-614 495 0
614 -495 0
-615 473 0
615 -473 0
-616 471 0
616 -471 0
-617 458 0
617 -458 0
-618 82 0
618 -82 0
-619 442 0
619 -442 0
-620 435 0
620 -435 0
-621 92 0
621 -92 0
-622 425 0
622 -425 0
-623 423 0
623 -423 0
-624 403 0
624 -403 0
-625 375 0
625 -375 0
-626 357 0
626 -357 0
-627 339 0
627 -339 0
-628 312 0
628 -312 0
-629 250 0
629 -250 0
-630 218 0
630 -218 0
-631 193 0
631 -193 0
-632 146 0
632 -146 0
634 650 0
-634 -650 0
635 651 0
-635 -651 0
636 652 0
-636 -652 0
637 653 0
-637 -653 0
638 654 0
-638 -654 0
640 655 0
-640 -655 0
642 656 0
-642 -656 0
643 657 0
-643 -657 0
644 658 0
-644 -658 0
645 659 0
-645 -659 0
646 660 0
-646 -660 0
647 661 0
-647 -661 0
648 662 0
-648 -662 0
649 663 0
-649 -663 0
632 664 0
-632 -664 0
631 665 0
-631 -665 0
630 666 0
-630 -666 0
629 667 0
-629 -667 0
628 668 0
-628 -668 0
627 669 0
-627 -669 0
-632 -666 670 0
632 -670 0
666 -670 0
-667 -670 671 0
667 -671 0
670 -671 0
-659 -660 672 0
659 -672 0
660 -672 0
672 673 0
-672 -673 0
-665 -673 674 0
665 -674 0
673 -674 0
-671 -674 675 0
671 -675 0
674 -675 0
-627 -675 676 0
627 -676 0
675 -676 0
676 677 0
-676 -677 0
-665 -671 678 0
665 -678 0
671 -678 0
-652 -678 679 0
652 -679 0
678 -679 0
-650 -679 680 0
650 -680 0
679 -680 0
680 681 0
-680 -681 0
-677 -681 682 0
677 -682 0
681 -682 0
-668 -671 683 0
668 -683 0
671 -683 0
-631 -669 684 0
631 -684 0
669 -684 0
-683 -684 685 0
683 -685 0
684 -685 0
685 686 0
-685 -686 0
-661 -662 687 0
661 -687 0
662 -687 0
687 688 0
-687 -688 0
-639 -666 689 0
639 -689 0
666 -689 0
689 690 0
-689 -690 0
-664 -665 691 0
664 -691 0
665 -691 0
-629 -669 692 0
629 -692 0
669 -692 0
-691 -692 693 0
691 -693 0
692 -693 0
-668 -693 694 0
668 -694 0
693 -694 0
-689 -694 695 0
689 -695 0
694 -695 0
-688 -695 696 0
688 -696 0
695 -696 0
696 697 0
-696 -697 0
-686 -697 698 0
686 -698 0
697 -698 0
-682 -698 699 0
682 -699 0
698 -699 0
-668 -669 700 0
668 -700 0
669 -700 0
700 701 0
-700 -701 0
-628 -627 702 0
628 -702 0
627 -702 0
702 703 0
-702 -703 0
-701 -703 704 0
701 -704 0
703 -704 0
-629 -670 705 0
629 -705 0
670 -705 0
-704 -705 706 0
704 -706 0
705 -706 0
706 707 0
-706 -707 0
-647 -683 708 0
647 -708 0
683 -708 0
708 709 0
-708 -709 0
-669 -708 710 0
669 -710 0
708 -710 0
710 711 0
-710 -711 0
-707 -711 712 0
707 -712 0
711 -712 0
-636 -637 713 0
636 -713 0
637 -713 0
713 714 0
-713 -714 0
-663 -683 715 0
663 -715 0
683 -715 0
715 716 0
-715 -716 0
-668 -627 717 0
668 -717 0
627 -717 0
-670 -717 718 0
670 -718 0
717 -718 0
718 719 0
-718 -719 0
-716 -719 720 0
716 -720 0
719 -720 0
720 721 0
-720 -721 0
-714 -721 722 0
714 -722 0
721 -722 0
722 723 0
-722 -723 0
-647 -675 724 0
647 -724 0
675 -724 0
724 725 0
-724 -725 0
-723 -725 726 0
723 -726 0
725 -726 0
-661 -665 727 0
661 -727 0
665 -727 0
727 728 0
-727 -728 0
-704 -727 729 0
704 -729 0
727 -729 0
-670 -729 730 0
670 -730 0
729 -730 0
730 731 0
-730 -731 0
-634 -635 732 0
634 -732 0
635 -732 0
732 733 0
-732 -733 0
-669 -671 734 0
669 -734 0
671 -734 0
-649 -734 735 0
649 -735 0
734 -735 0
735 736 0
-735 -736 0
-628 -669 737 0
628 -737 0
669 -737 0
-666 -737 738 0
666 -738 0
737 -738 0
-632 -738 739 0
632 -739 0
738 -739 0
739 740 0
-739 -740 0
-736 -740 741 0
736 -741 0
740 -741 0
741 742 0
-741 -742 0
-733 -742 743 0
733 -743 0
742 -743 0
743 744 0
-743 -744 0
-731 -744 745 0
731 -745 0
744 -745 0
-726 -745 746 0
726 -746 0
745 -746 0
-712 -746 747 0
712 -747 0
746 -747 0
-699 -747 748 0
699 -748 0
747 -748 0
748 749 0
-748 -749 0
-651 -737 750 0
651 -750 0
737 -750 0
750 751 0
-750 -751 0
-653 -717 752 0
653 -752 0
717 -752 0
752 753 0
-752 -753 0
-751 -753 754 0
751 -754 0
753 -754 0
754 755 0
-754 -755 0
-670 -755 756 0
670 -756 0
755 -756 0
756 757 0
-756 -757 0
-707 -757 758 0
707 -758 0
757 -758 0
758 759 0
-758 -759 0
-631 -759 760 0
631 -760 0
759 -760 0
760 761 0
-760 -761 0
-636 -653 762 0
636 -762 0
653 -762 0
762 763 0
-762 -763 0
-642 -763 764 0
642 -764 0
763 -764 0
764 765 0
-764 -765 0
-665 -672 766 0
665 -766 0
672 -766 0
-708 -766 767 0
708 -767 0
766 -767 0
-669 -767 768 0
669 -768 0
767 -768 0
-635 -768 769 0
635 -769 0
768 -769 0
769 770 0
-769 -770 0
-765 -769 771 0
765 -771 0
769 -771 0
-649 -771 772 0
649 -772 0
771 -772 0
772 773 0
-772 -773 0
-761 -773 774 0
761 -774 0
773 -774 0
-654 -685 775 0
654 -775 0
685 -775 0
775 776 0
-775 -776 0
-634 -651 777 0
634 -777 0
651 -777 0
777 778 0
-777 -778 0
-643 -778 779 0
643 -779 0
778 -779 0
779 780 0
-779 -780 0
-768 -780 781 0
768 -781 0
780 -781 0
-662 -663 782 0
662 -782 0
663 -782 0
782 783 0
-782 -783 0
-648 -649 784 0
648 -784 0
649 -784 0
784 785 0
-784 -785 0
-783 -785 786 0
783 -786 0
785 -786 0
786 787 0
-786 -787 0
-637 -786 788 0
637 -788 0
786 -788 0
788 789 0
-788 -789 0
-764 -789 790 0
764 -790 0
789 -790 0
790 791 0
-790 -791 0
-781 -791 792 0
781 -792 0
791 -792 0
792 793 0
-792 -793 0
-776 -793 794 0
776 -794 0
793 -794 0
-774 -794 795 0
774 -795 0
794 -795 0
795 796 0
-795 -796 0
-669 -672 797 0
669 -797 0
672 -797 0
-713 -797 798 0
713 -798 0
797 -798 0
798 799 0
-798 -799 0
-666 -799 800 0
666 -800 0
799 -800 0
800 801 0
-800 -801 0
-668 -801 802 0
668 -802 0
801 -802 0
-691 -802 803 0
691 -803 0
802 -803 0
-667 -803 804 0
667 -804 0
803 -804 0
804 805 0
-804 -805 0
-630 -691 806 0
630 -806 0
691 -806 0
-717 -806 807 0
717 -807 0
806 -807 0
807 808 0
-807 -808 0
-667 -806 809 0
667 -809 0
806 -809 0
-627 -809 810 0
627 -810 0
809 -810 0
810 811 0
-810 -811 0
-655 -810 812 0
655 -812 0
810 -812 0
812 813 0
-812 -813 0
-808 -813 814 0
808 -814 0
813 -814 0
-628 -693 815 0
628 -815 0
693 -815 0
815 816 0
-815 -816 0
-630 -815 817 0
630 -817 0
815 -817 0
817 818 0
-817 -818 0
-814 -818 819 0
814 -819 0
818 -819 0
-805 -819 820 0
805 -820 0
819 -820 0
820 821 0
-820 -821 0
-659 -647 822 0
659 -822 0
647 -822 0
-660 -822 823 0
660 -823 0
822 -823 0
823 824 0
-823 -824 0
-665 -824 825 0
665 -825 0
824 -825 0
825 826 0
-825 -826 0
-628 -826 827 0
628 -827 0
826 -827 0
-734 -827 828 0
734 -828 0
827 -828 0
-777 -828 829 0
777 -829 0
828 -829 0
829 830 0
-829 -830 0
-627 -826 831 0
627 -831 0
826 -831 0
-683 -831 832 0
683 -832 0
831 -832 0
-762 -832 833 0
762 -833 0
832 -833 0
833 834 0
-833 -834 0
-830 -834 835 0
830 -835 0
834 -835 0
-665 -668 836 0
665 -836 0
668 -836 0
-666 -667 837 0
666 -837 0
667 -837 0
-836 -837 838 0
836 -838 0
837 -838 0
-664 -798 839 0
664 -839 0
798 -839 0
-838 -839 840 0
838 -840 0
839 -840 0
840 841 0
-840 -841 0
-693 -690 842 0
693 -842 0
690 -842 0
842 843 0
-842 -843 0
-841 -843 844 0
841 -844 0
843 -844 0
-628 -810 845 0
628 -845 0
810 -845 0
845 846 0
-845 -846 0
-654 -706 847 0
654 -847 0
706 -847 0
847 848 0
-847 -848 0
-846 -848 849 0
846 -849 0
848 -849 0
-844 -849 850 0
844 -850 0
849 -850 0
-835 -850 851 0
835 -851 0
850 -851 0
-816 -851 852 0
816 -852 0
851 -852 0
852 853 0
-852 -853 0
-637 -642 854 0
637 -854 0
642 -854 0
-647 -734 855 0
647 -855 0
734 -855 0
855 856 0
-855 -856 0
-634 -855 857 0
634 -857 0
855 -857 0
-766 -857 858 0
766 -858 0
857 -858 0
-668 -858 859 0
668 -859 0
858 -859 0
859 860 0
-859 -860 0
-770 -860 861 0
770 -861 0
860 -861 0
861 862 0
-861 -862 0
-854 -862 863 0
854 -863 0
862 -863 0
863 864 0
-863 -864 0
-657 -768 865 0
657 -865 0
768 -865 0
865 866 0
-865 -866 0
-854 -865 867 0
854 -867 0
865 -867 0
867 868 0
-867 -868 0
-864 -868 869 0
864 -869 0
868 -869 0
-654 -661 870 0
654 -870 0
661 -870 0
870 871 0
-870 -871 0
-647 -673 872 0
647 -872 0
673 -872 0
872 873 0
-872 -873 0
-871 -873 874 0
871 -874 0
873 -874 0
874 875 0
-874 -875 0
-665 -875 876 0
665 -876 0
875 -876 0
876 877 0
-876 -877 0
-667 -877 878 0
667 -878 0
877 -878 0
-728 -733 879 0
728 -879 0
733 -879 0
879 880 0
-879 -880 0
-878 -880 881 0
878 -881 0
880 -881 0
881 882 0
-881 -882 0
-739 -882 883 0
739 -883 0
882 -883 0
883 884 0
-883 -884 0
-652 -637 885 0
652 -885 0
637 -885 0
-832 -885 886 0
832 -886 0
885 -886 0
886 887 0
-886 -887 0
-884 -887 888 0
884 -888 0
887 -888 0
-869 -888 889 0
869 -889 0
888 -889 0
-663 -762 890 0
663 -890 0
762 -890 0
890 891 0
-890 -891 0
-649 -777 892 0
649 -892 0
777 -892 0
892 893 0
-892 -893 0
-891 -893 894 0
891 -894 0
893 -894 0
894 895 0
-894 -895 0
-661 -734 896 0
661 -896 0
734 -896 0
-660 -896 897 0
660 -897 0
896 -897 0
-645 -897 898 0
645 -898 0
897 -898 0
-836 -898 899 0
836 -899 0
898 -899 0
-895 -899 900 0
895 -900 0
899 -900 0
900 901 0
-900 -901 0
-654 -817 902 0
654 -902 0
817 -902 0
902 903 0
-902 -903 0
-901 -903 904 0
901 -904 0
903 -904 0
-628 -676 905 0
628 -905 0
676 -905 0
905 906 0
-905 -906 0
-665 -738 907 0
665 -907 0
738 -907 0
-629 -907 908 0
629 -908 0
907 -908 0
-733 -908 909 0
733 -909 0
908 -909 0
909 910 0
-909 -910 0
-906 -910 911 0
906 -911 0
910 -911 0
-904 -911 912 0
904 -912 0
911 -912 0
-811 -912 913 0
811 -913 0
912 -913 0
-889 -913 914 0
889 -914 0
913 -914 0
914 915 0
-914 -915 0
-652 -653 916 0
652 -916 0
653 -916 0
916 917 0
-916 -917 0
-642 -916 918 0
642 -918 0
916 -918 0
918 919 0
-918 -919 0
-643 -769 920 0
643 -920 0
769 -920 0
-919 -920 921 0
919 -921 0
920 -921 0
921 922 0
-921 -922 0
-906 -922 923 0
906 -923 0
922 -923 0
-836 -896 924 0
836 -924 0
896 -924 0
924 925 0
-924 -925 0
-659 -924 926 0
659 -926 0
924 -926 0
-895 -926 927 0
895 -927 0
926 -927 0
927 928 0
-927 -928 0
-805 -928 929 0
805 -929 0
928 -929 0
-650 -635 930 0
650 -930 0
635 -930 0
-828 -930 931 0
828 -931 0
930 -931 0
931 932 0
-931 -932 0
-714 -728 933 0
714 -933 0
728 -933 0
933 934 0
-933 -934 0
-878 -934 935 0
878 -935 0
934 -935 0
935 936 0
-935 -936 0
-718 -936 937 0
718 -937 0
936 -937 0
937 938 0
-937 -938 0
-932 -938 939 0
932 -939 0
938 -939 0
-929 -939 940 0
929 -940 0
939 -940 0
-923 -940 941 0
923 -941 0
940 -941 0
941 942 0
-941 -942 0
-705 -737 943 0
705 -943 0
737 -943 0
943 944 0
-943 -944 0
-686 -944 945 0
686 -945 0
944 -945 0
-661 -717 946 0
661 -946 0
717 -946 0
946 947 0
-946 -947 0
-665 -670 948 0
665 -948 0
670 -948 0
-946 -948 949 0
946 -949 0
948 -949 0
949 950 0
-949 -950 0
-649 -667 951 0
649 -951 0
667 -951 0
-949 -951 952 0
949 -952 0
951 -952 0
952 953 0
-952 -953 0
-661 -632 954 0
661 -954 0
632 -954 0
-907 -954 955 0
907 -955 0
954 -955 0
-649 -955 956 0
649 -956 0
955 -956 0
956 957 0
-956 -957 0
-953 -957 958 0
953 -958 0
957 -958 0
-945 -958 959 0
945 -959 0
958 -959 0
959 960 0
-959 -960 0
-705 -717 961 0
705 -961 0
717 -961 0
961 962 0
-961 -962 0
-686 -962 963 0
686 -963 0
962 -963 0
-667 -955 964 0
667 -964 0
955 -964 0
964 965 0
-964 -965 0
-950 -965 966 0
950 -966 0
965 -966 0
966 967 0
-966 -967 0
-663 -967 968 0
663 -968 0
967 -968 0
968 969 0
-968 -969 0
-667 -628 970 0
667 -970 0
628 -970 0
970 971 0
-970 -971 0
-669 -971 972 0
669 -972 0
971 -972 0
-806 -972 973 0
806 -973 0
972 -973 0
973 974 0
-973 -974 0
-969 -974 975 0
969 -975 0
974 -975 0
-811 -975 976 0
811 -976 0
975 -976 0
-963 -976 977 0
963 -977 0
976 -977 0
977 978 0
-977 -978 0
-651 -858 979 0
651 -979 0
858 -979 0
979 980 0
-979 -980 0
-765 -979 981 0
765 -981 0
979 -981 0
-643 -981 982 0
643 -982 0
981 -982 0
982 983 0
-982 -983 0
-830 -983 984 0
830 -984 0
983 -984 0
-650 -651 985 0
650 -985 0
651 -985 0
985 986 0
-985 -986 0
-733 -986 987 0
733 -987 0
986 -987 0
-924 -987 988 0
924 -988 0
987 -988 0
-645 -646 989 0
645 -989 0
646 -989 0
989 990 0
-989 -990 0
-649 -990 991 0
649 -991 0
990 -991 0
-988 -991 992 0
988 -992 0
991 -992 0
992 993 0
-992 -993 0
-650 -659 994 0
650 -994 0
659 -994 0
-660 -678 995 0
660 -995 0
678 -995 0
-652 -995 996 0
652 -996 0
995 -996 0
-702 -996 997 0
702 -997 0
996 -997 0
-994 -997 998 0
994 -998 0
997 -998 0
998 999 0
-998 -999 0
-993 -999 1000 0
993 -1000 0
999 -1000 0
-984 -1000 1001 0
984 -1001 0
1000 -1001 0
-732 -815 1002 0
732 -1002 0
815 -1002 0
-666 -1002 1003 0
666 -1003 0
1002 -1003 0
1003 1004 0
-1003 -1004 0
-1001 -1004 1005 0
1001 -1005 0
1004 -1005 0
1005 1006 0
-1005 -1006 0
-669 -727 1007 0
669 -1007 0
727 -1007 0
-715 -1007 1008 0
715 -1008 0
1007 -1008 0
-762 -1008 1009 0
762 -1009 0
1008 -1009 0
1009 1010 0
-1009 -1010 0
-885 -1008 1011 0
885 -1011 0
1008 -1011 0
1011 1012 0
-1011 -1012 0
-1010 -1012 1013 0
1010 -1013 0
1012 -1013 0
1013 1014 0
-1013 -1014 0
-990 -1014 1015 0
990 -1015 0
1014 -1015 0
1015 1016 0
-1015 -1016 0
-999 -1016 1017 0
999 -1017 0
1016 -1017 0
-767 -780 1018 0
767 -1018 0
780 -1018 0
-762 -1018 1019 0
762 -1019 0
1018 -1019 0
1019 1020 0
-1019 -1020 0
-642 -1019 1021 0
642 -1021 0
1019 -1021 0
1021 1022 0
-1021 -1022 0
-841 -1022 1023 0
841 -1023 0
1022 -1023 0
-834 -1023 1024 0
834 -1024 0
1023 -1024 0
-1017 -1024 1025 0
1017 -1025 0
1024 -1025 0
1025 1026 0
-1025 -1026 0
-811 -974 1027 0
811 -1027 0
974 -1027 0
1027 1028 0
-1027 -1028 0
-632 -908 1029 0
632 -1029 0
908 -1029 0
1029 1030 0
-1029 -1030 0
-649 -685 1031 0
649 -1031 0
685 -1031 0
1031 1032 0
-1031 -1032 0
-1030 -1032 1033 0
1030 -1033 0
1032 -1033 0
-663 -955 1034 0
663 -1034 0
955 -1034 0
1034 1035 0
-1034 -1035 0
-953 -1035 1036 0
953 -1036 0
1035 -1036 0
-1033 -1036 1037 0
1033 -1037 0
1036 -1037 0
1037 1038 0
-1037 -1038 0
-648 -685 1039 0
648 -1039 0
685 -1039 0
1039 1040 0
-1039 -1040 0
-665 -706 1041 0
665 -1041 0
706 -1041 0
1041 1042 0
-1041 -1042 0
-731 -1042 1043 0
731 -1043 0
1042 -1043 0
-1040 -1043 1044 0
1040 -1044 0
1043 -1044 0
1044 1045 0
-1044 -1045 0
-647 -695 1046 0
647 -1046 0
695 -1046 0
1046 1047 0
-1046 -1047 0
-841 -1047 1048 0
841 -1048 0
1047 -1048 0
-634 -750 1049 0
634 -1049 0
750 -1049 0
1049 1050 0
-1049 -1050 0
-636 -752 1051 0
636 -1051 0
752 -1051 0
1051 1052 0
-1051 -1052 0
-1050 -1052 1053 0
1050 -1053 0
1052 -1053 0
1053 1054 0
-1053 -1054 0
-995 -1054 1055 0
995 -1055 0
1054 -1055 0
-822 -1055 1056 0
822 -1056 0
1055 -1056 0
1056 1057 0
-1056 -1057 0
-925 -999 1058 0
925 -1058 0
999 -1058 0
-1057 -1058 1059 0
1057 -1059 0
1058 -1059 0
-1048 -1059 1060 0
1048 -1060 0
1059 -1060 0
1060 1061 0
-1060 -1061 0
-629 -704 1062 0
629 -1062 0
704 -1062 0
1062 1063 0
-1062 -1063 0
-947 -1063 1064 0
947 -1064 0
1063 -1064 0
1064 1065 0
-1064 -1065 0
-948 -1065 1066 0
948 -1066 0
1065 -1066 0
1066 1067 0
-1066 -1067 0
-818 -1067 1068 0
818 -1068 0
1067 -1068 0
-668 -809 1069 0
668 -1069 0
809 -1069 0
1069 1070 0
-1069 -1070 0
-686 -1070 1071 0
686 -1071 0
1070 -1071 0
-811 -1071 1072 0
811 -1072 0
1071 -1072 0
-1068 -1072 1073 0
1068 -1073 0
1072 -1073 0
1073 1074 0
-1073 -1074 0
-686 -965 1075 0
686 -1075 0
965 -1075 0
1075 1076 0
-1075 -1076 0
-647 -838 1077 0
647 -1077 0
838 -1077 0
-669 -1077 1078 0
669 -1078 0
1077 -1078 0
1078 1079 0
-1078 -1079 0
-715 -990 1080 0
715 -1080 0
990 -1080 0
1080 1081 0
-1080 -1081 0
-709 -1081 1082 0
709 -1082 0
1081 -1082 0
1082 1083 0
-1082 -1083 0
-653 -1083 1084 0
653 -1084 0
1083 -1084 0
1084 1085 0
-1084 -1085 0
-1079 -1085 1086 0
1079 -1086 0
1085 -1086 0
-735 -990 1087 0
735 -1087 0
990 -1087 0
1087 1088 0
-1087 -1088 0
-856 -1088 1089 0
856 -1089 0
1088 -1089 0
1089 1090 0
-1089 -1090 0
-651 -1090 1091 0
651 -1091 0
1090 -1091 0
1091 1092 0
-1091 -1092 0
-700 -691 1093 0
700 -1093 0
691 -1093 0
1093 1094 0
-1093 -1094 0
-1092 -1094 1095 0
1092 -1095 0
1094 -1095 0
-811 -1095 1096 0
811 -1096 0
1095 -1096 0
-1086 -1096 1097 0
1086 -1097 0
1096 -1097 0
1097 1098 0
-1097 -1098 0
-663 -896 1099 0
663 -1099 0
896 -1099 0
-637 -659 1100 0
637 -1100 0
659 -1100 0
-1099 -1100 1101 0
1099 -1101 0
1100 -1101 0
1101 1102 0
-1101 -1102 0
-627 -679 1103 0
627 -1103 0
679 -1103 0
1103 1104 0
-1103 -1104 0
-1102 -1104 1105 0
1102 -1105 0
1104 -1105 0
-635 -649 1106 0
635 -1106 0
649 -1106 0
1106 1107 0
-1106 -1107 0
-652 -663 1108 0
652 -1108 0
663 -1108 0
1108 1109 0
-1108 -1109 0
-1107 -1109 1110 0
1107 -1110 0
1109 -1110 0
1110 1111 0
-1110 -1111 0
-897 -1111 1112 0
897 -1112 0
1111 -1112 0
1112 1113 0
-1112 -1113 0
-1094 -1113 1114 0
1094 -1114 0
1113 -1114 0
-735 -994 1115 0
735 -1115 0
994 -1115 0
-661 -1115 1116 0
661 -1116 0
1115 -1116 0
1116 1117 0
-1116 -1117 0
-811 -1117 1118 0
811 -1118 0
1117 -1118 0
-1114 -1118 1119 0
1114 -1119 0
1118 -1119 0
-1105 -1119 1120 0
1105 -1120 0
1119 -1120 0
1120 1121 0
-1120 -1121 0
-629 -700 1122 0
629 -1122 0
700 -1122 0
1122 1123 0
-1122 -1123 0
-667 -702 1124 0
667 -1124 0
702 -1124 0
-640 -1124 1125 0
640 -1125 0
1124 -1125 0
1125 1126 0
-1125 -1126 0
-1123 -1126 1127 0
1123 -1127 0
1126 -1127 0
1127 1128 0
-1127 -1128 0
-806 -1128 1129 0
806 -1129 0
1128 -1129 0
1129 1130 0
-1129 -1130 0
-866 -980 1131 0
866 -1131 0
980 -1131 0
1131 1132 0
-1131 -1132 0
-656 -1132 1133 0
656 -1133 0
1132 -1133 0
1133 1134 0
-1133 -1134 0
-1020 -1134 1135 0
1020 -1135 0
1134 -1135 0
-649 -926 1136 0
649 -1136 0
926 -1136 0
-987 -1136 1137 0
987 -1137 0
1136 -1137 0
1137 1138 0
-1137 -1138 0
-714 -917 1139 0
714 -1139 0
917 -1139 0
-1008 -1139 1140 0
1008 -1140 0
1139 -1140 0
-659 -1140 1141 0
659 -1141 0
1140 -1141 0
1141 1142 0
-1141 -1142 0
-1138 -1142 1143 0
1138 -1143 0
1142 -1143 0
-999 -1057 1144 0
999 -1144 0
1057 -1144 0
-1143 -1144 1145 0
1143 -1145 0
1144 -1145 0
-1135 -1145 1146 0
1135 -1146 0
1145 -1146 0
-1130 -1146 1147 0
1130 -1147 0
1146 -1147 0
1147 1148 0
-1147 -1148 0
-661 -649 1149 0
661 -1149 0
649 -1149 0
-650 -645 1150 0
650 -1150 0
645 -1150 0
-1149 -1150 1151 0
1149 -1151 0
1150 -1151 0
1151 1152 0
-1151 -1152 0
-656 -663 1153 0
656 -1153 0
663 -1153 0
-822 -1153 1154 0
822 -1154 0
1153 -1154 0
-643 -1154 1155 0
643 -1155 0
1154 -1155 0
1155 1156 0
-1155 -1156 0
-1152 -1156 1157 0
1152 -1157 0
1156 -1157 0
1157 1158 0
-1157 -1158 0
-635 -1158 1159 0
635 -1159 0
1158 -1159 0
-995 -1159 1160 0
995 -1160 0
1159 -1160 0
-700 -1160 1161 0
700 -1161 0
1160 -1161 0
1161 1162 0
-1161 -1162 0
-787 -867 1163 0
787 -1163 0
867 -1163 0
1163 1164 0
-1163 -1164 0
-1162 -1164 1165 0
1162 -1165 0
1164 -1165 0
-663 -1139 1166 0
663 -1166 0
1139 -1166 0
1166 1167 0
-1166 -1167 0
-893 -1167 1168 0
893 -1168 0
1167 -1168 0
1168 1169 0
-1168 -1169 0
-899 -1169 1170 0
899 -1170 0
1169 -1170 0
1170 1171 0
-1170 -1171 0
-1165 -1171 1172 0
1165 -1172 0
1171 -1172 0
1172 1173 0
-1172 -1173 0
-658 -673 1174 0
658 -1174 0
673 -1174 0
-659 -1011 1175 0
659 -1175 0
1011 -1175 0
1175 1176 0
-1175 -1176 0
-930 -1136 1177 0
930 -1177 0
1136 -1177 0
1177 1178 0
-1177 -1178 0
-999 -1178 1179 0
999 -1179 0
1178 -1179 0
-641 -685 1180 0
641 -1180 0
685 -1180 0
1180 1181 0
-1180 -1181 0
-1067 -1181 1182 0
1067 -1182 0
1181 -1182 0
1182 1183 0
-1182 -1183 0
-638 -1183 1184 0
638 -1184 0
1183 -1184 0
1184 1185 0
-1184 -1185 0
-1130 -1185 1186 0
1130 -1186 0
1185 -1186 0
-1179 -1186 1187 0
1179 -1187 0
1186 -1187 0
-1176 -1187 1188 0
1176 -1188 0
1187 -1188 0
1188 1189 0
-1188 -1189 0
-638 -964 1190 0
638 -1190 0
964 -1190 0
1190 1191 0
-1190 -1191 0
-1162 -1191 1192 0
1162 -1192 0
1191 -1192 0
-660 -1011 1193 0
660 -1193 0
1011 -1193 0
-645 -1193 1194 0
645 -1194 0
1193 -1194 0
1194 1195 0
-1194 -1195 0
-1164 -1195 1196 0
1164 -1196 0
1195 -1196 0
-1192 -1196 1197 0
1192 -1197 0
1196 -1197 0
1197 1198 0
-1197 -1198 0
-658 -646 1199 0
658 -1199 0
646 -1199 0
-658 -660 1200 0
658 -1200 0
660 -1200 0
-630 -667 1201 0
630 -1201 0
667 -1201 0
-1093 -1201 1202 0
1093 -1202 0
1201 -1202 0
-920 -1153 1203 0
920 -1203 0
1153 -1203 0
1203 1204 0
-1203 -1204 0
-1164 -1204 1205 0
1164 -1205 0
1204 -1205 0
1205 1206 0
-1205 -1206 0
-1207 1206 0
1207 -1206 0
-1208 1202 0
1208 -1202 0
-1209 1200 0
1209 -1200 0
-1210 1199 0
1210 -1199 0
-1211 1198 0
1211 -1198 0
-1212 1189 0
1212 -1189 0
-1213 1174 0
1213 -1174 0
-1214 1173 0
1214 -1173 0
-1215 1148 0
1215 -1148 0
-1216 1121 0
1216 -1121 0
-1217 1098 0
1217 -1098 0
-1218 1076 0
1218 -1076 0
-1219 1074 0
1219 -1074 0
-1220 1061 0
1220 -1061 0
-1221 685 0
1221 -685 0
-1222 1045 0
1222 -1045 0
-1223 1038 0
1223 -1038 0
-1224 695 0
1224 -695 0
-1225 1028 0
1225 -1028 0
-1226 1026 0
1226 -1026 0
-1227 1006 0
1227 -1006 0
-1228 978 0
1228 -978 0
-1229 960 0
1229 -960 0
-1230 942 0
1230 -942 0
-1231 915 0
1231 -915 0
-1232 853 0
1232 -853 0
-1233 821 0
1233 -821 0
-1234 796 0
1234 -796 0
-1235 749 0
1235 -749 0
1237 1253 0
-1237 -1253 0
1238 1254 0
-1238 -1254 0
1239 1255 0
-1239 -1255 0
1240 1256 0
-1240 -1256 0
1241 1257 0
-1241 -1257 0
1243 1258 0
-1243 -1258 0
1245 1259 0
-1245 -1259 0
1246 1260 0
-1246 -1260 0
1247 1261 0
-1247 -1261 0
1248 1262 0
-1248 -1262 0
1249 1263 0
-1249 -1263 0
1250 1264 0
-1250 -1264 0
1251 1265 0
-1251 -1265 0
1252 1266 0
-1252 -1266 0
1235 1267 0
-1235 -1267 0
1234 1268 0
-1234 -1268 0
1233 1269 0
-1233 -1269 0
1232 1270 0
-1232 -1270 0
1231 1271 0
-1231 -1271 0
1230 1272 0
-1230 -1272 0
-1235 -1269 1273 0
1235 -1273 0
1269 -1273 0
-1270 -1273 1274 0
1270 -1274 0
1273 -1274 0
-1262 -1263 1275 0
1262 -1275 0
1263 -1275 0
1275 1276 0
-1275 -1276 0
-1268 -1276 1277 0
1268 -1277 0
1276 -1277 0
-1274 -1277 1278 0
1274 -1278 0
1277 -1278 0
-1230 -1278 1279 0
1230 -1279 0
1278 -1279 0
1279 1280 0
-1279 -1280 0
-1268 -1274 1281 0
1268 -1281 0
1274 -1281 0
-1255 -1281 1282 0
1255 -1282 0
1281 -1282 0
-1253 -1282 1283 0
1253 -1283 0
1282 -1283 0
1283 1284 0
-1283 -1284 0
-1280 -1284 1285 0
1280 -1285 0
1284 -1285 0
-1271 -1274 1286 0
1271 -1286 0
1274 -1286 0
-1234 -1272 1287 0
1234 -1287 0
1272 -1287 0
-1286 -1287 1288 0
1286 -1288 0
1287 -1288 0
1288 1289 0
-1288 -1289 0
-1264 -1265 1290 0
1264 -1290 0
1265 -1290 0
1290 1291 0
-1290 -1291 0
-1242 -1269 1292 0
1242 -1292 0
1269 -1292 0
1292 1293 0
-1292 -1293 0
-1267 -1268 1294 0
1267 -1294 0
1268 -1294 0
-1232 -1272 1295 0
1232 -1295 0
1272 -1295 0
-1294 -1295 1296 0
1294 -1296 0
1295 -1296 0
-1271 -1296 1297 0
1271 -1297 0
1296 -1297 0
-1292 -1297 1298 0
1292 -1298 0
1297 -1298 0
-1291 -1298 1299 0
1291 -1299 0
1298 -1299 0
1299 1300 0
-1299 -1300 0
-1289 -1300 1301 0
1289 -1301 0
1300 -1301 0
-1285 -1301 1302 0
1285 -1302 0
1301 -1302 0
-1271 -1272 1303 0
1271 -1303 0
1272 -1303 0
1303 1304 0
-1303 -1304 0
-1231 -1230 1305 0
1231 -1305 0
1230 -1305 0
1305 1306 0
-1305 -1306 0
-1304 -1306 1307 0
1304 -1307 0
1306 -1307 0
-1232 -1273 1308 0
1232 -1308 0
1273 -1308 0
-1307 -1308 1309 0
1307 -1309 0
1308 -1309 0
1309 1310 0
-1309 -1310 0
-1250 -1286 1311 0
1250 -1311 0
1286 -1311 0
1311 1312 0
-1311 -1312 0
-1272 -1311 1313 0
1272 -1313 0
1311 -1313 0
1313 1314 0
-1313 -1314 0
-1310 -1314 1315 0
1310 -1315 0
1314 -1315 0
-1239 -1240 1316 0
1239 -1316 0
1240 -1316 0
1316 1317 0
-1316 -1317 0
-1266 -1286 1318 0
1266 -1318 0
1286 -1318 0
1318 1319 0
-1318 -1319 0
-1271 -1230 1320 0
1271 -1320 0
1230 -1320 0
-1273 -1320 1321 0
1273 -1321 0
1320 -1321 0
1321 1322 0
-1321 -1322 0
-1319 -1322 1323 0
1319 -1323 0
1322 -1323 0
1323 1324 0
-1323 -1324 0
-1317 -1324 1325 0
1317 -1325 0
1324 -1325 0
1325 1326 0
-1325 -1326 0
-1250 -1278 1327 0
1250 -1327 0
1278 -1327 0
1327 1328 0
-1327 -1328 0
-1326 -1328 1329 0
1326 -1329 0
1328 -1329 0
-1264 -1268 1330 0
1264 -1330 0
1268 -1330 0
1330 1331 0
-1330 -1331 0
-1307 -1330 1332 0
1307 -1332 0
1330 -1332 0
-1273 -1332 1333 0
1273 -1333 0
1332 -1333 0
1333 1334 0
-1333 -1334 0
-1237 -1238 1335 0
1237 -1335 0
1238 -1335 0
1335 1336 0
-1335 -1336 0
-1272 -1274 1337 0
1272 -1337 0
1274 -1337 0
-1252 -1337 1338 0
1252 -1338 0
1337 -1338 0
1338 1339 0
-1338 -1339 0
-1231 -1272 1340 0
1231 -1340 0
1272 -1340 0
-1269 -1340 1341 0
1269 -1341 0
1340 -1341 0
-1235 -1341 1342 0
1235 -1342 0
1341 -1342 0
1342 1343 0
-1342 -1343 0
-1339 -1343 1344 0
1339 -1344 0
1343 -1344 0
1344 1345 0
-1344 -1345 0
-1336 -1345 1346 0
1336 -1346 0
1345 -1346 0
1346 1347 0
-1346 -1347 0
-1334 -1347 1348 0
1334 -1348 0
1347 -1348 0
-1329 -1348 1349 0
1329 -1349 0
1348 -1349 0
-1315 -1349 1350 0
1315 -1350 0
1349 -1350 0
-1302 -1350 1351 0
1302 -1351 0
1350 -1351 0
1351 1352 0
-1351 -1352 0
-1254 -1340 1353 0
1254 -1353 0
1340 -1353 0
1353 1354 0
-1353 -1354 0
-1256 -1320 1355 0
1256 -1355 0
1320 -1355 0
1355 1356 0
-1355 -1356 0
-1354 -1356 1357 0
1354 -1357 0
1356 -1357 0
1357 1358 0
-1357 -1358 0
-1273 -1358 1359 0
1273 -1359 0
1358 -1359 0
1359 1360 0
-1359 -1360 0
-1310 -1360 1361 0
1310 -1361 0
1360 -1361 0
1361 1362 0
-1361 -1362 0
-1234 -1362 1363 0
1234 -1363 0
1362 -1363 0
1363 1364 0
-1363 -1364 0
-1239 -1256 1365 0
1239 -1365 0
1256 -1365 0
1365 1366 0
-1365 -1366 0
-1245 -1366 1367 0
1245 -1367 0
1366 -1367 0
1367 1368 0
-1367 -1368 0
-1268 -1275 1369 0
1268 -1369 0
1275 -1369 0
-1311 -1369 1370 0
1311 -1370 0
1369 -1370 0
-1272 -1370 1371 0
1272 -1371 0
1370 -1371 0
-1238 -1371 1372 0
1238 -1372 0
1371 -1372 0
1372 1373 0
-1372 -1373 0
-1368 -1372 1374 0
1368 -1374 0
1372 -1374 0
-1252 -1374 1375 0
1252 -1375 0
1374 -1375 0
1375 1376 0
-1375 -1376 0
-1364 -1376 1377 0
1364 -1377 0
1376 -1377 0
-1257 -1288 1378 0
1257 -1378 0
1288 -1378 0
1378 1379 0
-1378 -1379 0
-1237 -1254 1380 0
1237 -1380 0
1254 -1380 0
1380 1381 0
-1380 -1381 0
-1246 -1381 1382 0
1246 -1382 0
1381 -1382 0
1382 1383 0
-1382 -1383 0
-1371 -1383 1384 0
1371 -1384 0
1383 -1384 0
-1265 -1266 1385 0
1265 -1385 0
1266 -1385 0
1385 1386 0
-1385 -1386 0
-1251 -1252 1387 0
1251 -1387 0
1252 -1387 0
1387 1388 0
-1387 -1388 0
-1386 -1388 1389 0
1386 -1389 0
1388 -1389 0
1389 1390 0
-1389 -1390 0
-1240 -1389 1391 0
1240 -1391 0
1389 -1391 0
1391 1392 0
-1391 -1392 0
-1367 -1392 1393 0
1367 -1393 0
1392 -1393 0
1393 1394 0
-1393 -1394 0
-1384 -1394 1395 0
1384 -1395 0
1394 -1395 0
1395 1396 0
-1395 -1396 0
-1379 -1396 1397 0
1379 -1397 0
1396 -1397 0
-1377 -1397 1398 0
1377 -1398 0
1397 -1398 0
1398 1399 0
-1398 -1399 0
-1272 -1275 1400 0
1272 -1400 0
1275 -1400 0
-1316 -1400 1401 0
1316 -1401 0
1400 -1401 0
1401 1402 0
-1401 -1402 0
-1269 -1402 1403 0
1269 -1403 0
1402 -1403 0
1403 1404 0
-1403 -1404 0
-1271 -1404 1405 0
1271 -1405 0
1404 -1405 0
-1294 -1405 1406 0
1294 -1406 0
1405 -1406 0
-1270 -1406 1407 0
1270 -1407 0
1406 -1407 0
1407 1408 0
-1407 -1408 0
-1233 -1294 1409 0
1233 -1409 0
1294 -1409 0
-1320 -1409 1410 0
1320 -1410 0
1409 -1410 0
1410 1411 0
-1410 -1411 0
-1270 -1409 1412 0
1270 -1412 0
1409 -1412 0
-1230 -1412 1413 0
1230 -1413 0
1412 -1413 0
1413 1414 0
-1413 -1414 0
-1258 -1413 1415 0
1258 -1415 0
1413 -1415 0
1415 1416 0
-1415 -1416 0
-1411 -1416 1417 0
1411 -1417 0
1416 -1417 0
-1231 -1296 1418 0
1231 -1418 0
1296 -1418 0
1418 1419 0
-1418 -1419 0
-1233 -1418 1420 0
1233 -1420 0
1418 -1420 0
1420 1421 0
-1420 -1421 0
-1417 -1421 1422 0
1417 -1422 0
1421 -1422 0
-1408 -1422 1423 0
1408 -1423 0
1422 -1423 0
1423 1424 0
-1423 -1424 0
-1262 -1250 1425 0
1262 -1425 0
1250 -1425 0
-1263 -1425 1426 0
1263 -1426 0
1425 -1426 0
1426 1427 0
-1426 -1427 0
-1268 -1427 1428 0
1268 -1428 0
1427 -1428 0
1428 1429 0
-1428 -1429 0
-1231 -1429 1430 0
1231 -1430 0
1429 -1430 0
-1337 -1430 1431 0
1337 -1431 0
1430 -1431 0
-1380 -1431 1432 0
1380 -1432 0
1431 -1432 0
1432 1433 0
-1432 -1433 0
-1230 -1429 1434 0
1230 -1434 0
1429 -1434 0
-1286 -1434 1435 0
1286 -1435 0
1434 -1435 0
-1365 -1435 1436 0
1365 -1436 0
1435 -1436 0
1436 1437 0
-1436 -1437 0
-1433 -1437 1438 0
1433 -1438 0
1437 -1438 0
-1268 -1271 1439 0
1268 -1439 0
1271 -1439 0
-1269 -1270 1440 0
1269 -1440 0
1270 -1440 0
-1439 -1440 1441 0
1439 -1441 0
1440 -1441 0
-1267 -1401 1442 0
1267 -1442 0
1401 -1442 0
-1441 -1442 1443 0
1441 -1443 0
1442 -1443 0
1443 1444 0
-1443 -1444 0
-1296 -1293 1445 0
1296 -1445 0
1293 -1445 0
1445 1446 0
-1445 -1446 0
-1444 -1446 1447 0
1444 -1447 0
1446 -1447 0
-1231 -1413 1448 0
1231 -1448 0
1413 -1448 0
1448 1449 0
-1448 -1449 0
-1257 -1309 1450 0
1257 -1450 0
1309 -1450 0
1450 1451 0
-1450 -1451 0
-1449 -1451 1452 0
1449 -1452 0
1451 -1452 0
-1447 -1452 1453 0
1447 -1453 0
1452 -1453 0
-1438 -1453 1454 0
1438 -1454 0
1453 -1454 0
-1419 -1454 1455 0
1419 -1455 0
1454 -1455 0
1455 1456 0
-1455 -1456 0
-1240 -1245 1457 0
1240 -1457 0
1245 -1457 0
-1250 -1337 1458 0
1250 -1458 0
1337 -1458 0
1458 1459 0
-1458 -1459 0
-1237 -1458 1460 0
1237 -1460 0
1458 -1460 0
-1369 -1460 1461 0
1369 -1461 0
1460 -1461 0
-1271 -1461 1462 0
1271 -1462 0
1461 -1462 0
1462 1463 0
-1462 -1463 0
-1373 -1463 1464 0
1373 -1464 0
1463 -1464 0
1464 1465 0
-1464 -1465 0
-1457 -1465 1466 0
1457 -1466 0
1465 -1466 0
1466 1467 0
-1466 -1467 0
-1260 -1371 1468 0
1260 -1468 0
1371 -1468 0
1468 1469 0
-1468 -1469 0
-1457 -1468 1470 0
1457 -1470 0
1468 -1470 0
1470 1471 0
-1470 -1471 0
-1467 -1471 1472 0
1467 -1472 0
1471 -1472 0
-1257 -1264 1473 0
1257 -1473 0
1264 -1473 0
1473 1474 0
-1473 -1474 0
-1250 -1276 1475 0
1250 -1475 0
1276 -1475 0
1475 1476 0
-1475 -1476 0
-1474 -1476 1477 0
1474 -1477 0
1476 -1477 0
1477 1478 0
-1477 -1478 0
-1268 -1478 1479 0
1268 -1479 0
1478 -1479 0
1479 1480 0
-1479 -1480 0
-1270 -1480 1481 0
1270 -1481 0
1480 -1481 0
-1331 -1336 1482 0
1331 -1482 0
1336 -1482 0
1482 1483 0
-1482 -1483 0
-1481 -1483 1484 0
1481 -1484 0
1483 -1484 0
1484 1485 0
-1484 -1485 0
-1342 -1485 1486 0
1342 -1486 0
1485 -1486 0
1486 1487 0
-1486 -1487 0
-1255 -1240 1488 0
1255 -1488 0
1240 -1488 0
-1435 -1488 1489 0
1435 -1489 0
1488 -1489 0
1489 1490 0
-1489 -1490 0
-1487 -1490 1491 0
1487 -1491 0
1490 -1491 0
-1472 -1491 1492 0
1472 -1492 0
1491 -1492 0
-1266 -1365 1493 0
1266 -1493 0
1365 -1493 0
1493 1494 0
-1493 -1494 0
-1252 -1380 1495 0
1252 -1495 0
1380 -1495 0
1495 1496 0
-1495 -1496 0
-1494 -1496 1497 0
1494 -1497 0
1496 -1497 0
1497 1498 0
-1497 -1498 0
-1264 -1337 1499 0
1264 -1499 0
1337 -1499 0
-1263 -1499 1500 0
1263 -1500 0
1499 -1500 0
-1248 -1500 1501 0
1248 -1501 0
1500 -1501 0
-1439 -1501 1502 0
1439 -1502 0
1501 -1502 0
-1498 -1502 1503 0
1498 -1503 0
1502 -1503 0
1503 1504 0
-1503 -1504 0
-1257 -1420 1505 0
1257 -1505 0
1420 -1505 0
1505 1506 0
-1505 -1506 0
-1504 -1506 1507 0
1504 -1507 0
1506 -1507 0
-1231 -1279 1508 0
1231 -1508 0
1279 -1508 0
1508 1509 0
-1508 -1509 0
-1268 -1341 1510 0
1268 -1510 0
1341 -1510 0
-1232 -1510 1511 0
1232 -1511 0
1510 -1511 0
-1336 -1511 1512 0
1336 -1512 0
1511 -1512 0
1512 1513 0
-1512 -1513 0
-1509 -1513 1514 0
1509 -1514 0
1513 -1514 0
-1507 -1514 1515 0
1507 -1515 0
1514 -1515 0
-1414 -1515 1516 0
1414 -1516 0
1515 -1516 0
-1492 -1516 1517 0
1492 -1517 0
1516 -1517 0
1517 1518 0
-1517 -1518 0
-1255 -1256 1519 0
1255 -1519 0
1256 -1519 0
1519 1520 0
-1519 -1520 0
-1245 -1519 1521 0
1245 -1521 0
1519 -1521 0
1521 1522 0
-1521 -1522 0
-1246 -1372 1523 0
1246 -1523 0
1372 -1523 0
-1522 -1523 1524 0
1522 -1524 0
1523 -1524 0
1524 1525 0
-1524 -1525 0
-1509 -1525 1526 0
1509 -1526 0
1525 -1526 0
-1439 -1499 1527 0
1439 -1527 0
1499 -1527 0
1527 1528 0
-1527 -1528 0
-1262 -1527 1529 0
1262 -1529 0
1527 -1529 0
-1498 -1529 1530 0
1498 -1530 0
1529 -1530 0
1530 1531 0
-1530 -1531 0
-1408 -1531 1532 0
1408 -1532 0
1531 -1532 0
-1253 -1238 1533 0
1253 -1533 0
1238 -1533 0
-1431 -1533 1534 0
1431 -1534 0
1533 -1534 0
1534 1535 0
-1534 -1535 0
-1317 -1331 1536 0
1317 -1536 0
1331 -1536 0
1536 1537 0
-1536 -1537 0
-1481 -1537 1538 0
1481 -1538 0
1537 -1538 0
1538 1539 0
-1538 -1539 0
-1321 -1539 1540 0
1321 -1540 0
1539 -1540 0
1540 1541 0
-1540 -1541 0
-1535 -1541 1542 0
1535 -1542 0
1541 -1542 0
-1532 -1542 1543 0
1532 -1543 0
1542 -1543 0
-1526 -1543 1544 0
1526 -1544 0
1543 -1544 0
1544 1545 0
-1544 -1545 0
-1308 -1340 1546 0
1308 -1546 0
1340 -1546 0
1546 1547 0
-1546 -1547 0
-1289 -1547 1548 0
1289 -1548 0
1547 -1548 0
-1264 -1320 1549 0
1264 -1549 0
1320 -1549 0
1549 1550 0
-1549 -1550 0
-1268 -1273 1551 0
1268 -1551 0
1273 -1551 0
-1549 -1551 1552 0
1549 -1552 0
1551 -1552 0
1552 1553 0
-1552 -1553 0
-1252 -1270 1554 0
1252 -1554 0
1270 -1554 0
-1552 -1554 1555 0
1552 -1555 0
1554 -1555 0
1555 1556 0
-1555 -1556 0
-1264 -1235 1557 0
1264 -1557 0
1235 -1557 0
-1510 -1557 1558 0
1510 -1558 0
1557 -1558 0
-1252 -1558 1559 0
1252 -1559 0
1558 -1559 0
1559 1560 0
-1559 -1560 0
-1556 -1560 1561 0
1556 -1561 0
1560 -1561 0
-1548 -1561 1562 0
1548 -1562 0
1561 -1562 0
1562 1563 0
-1562 -1563 0
-1308 -1320 1564 0
1308 -1564 0
1320 -1564 0
1564 1565 0
-1564 -1565 0
-1289 -1565 1566 0
1289 -1566 0
1565 -1566 0
-1270 -1558 1567 0
1270 -1567 0
1558 -1567 0
1567 1568 0
-1567 -1568 0
-1553 -1568 1569 0
1553 -1569 0
1568 -1569 0
1569 1570 0
-1569 -1570 0
-1266 -1570 1571 0
1266 -1571 0
1570 -1571 0
1571 1572 0
-1571 -1572 0
-1270 -1231 1573 0
1270 -1573 0
1231 -1573 0
1573 1574 0
-1573 -1574 0
-1272 -1574 1575 0
1272 -1575 0
1574 -1575 0
-1409 -1575 1576 0
1409 -1576 0
1575 -1576 0
1576 1577 0
-1576 -1577 0
-1572 -1577 1578 0
1572 -1578 0
1577 -1578 0
-1414 -1578 1579 0
1414 -1579 0
1578 -1579 0
-1566 -1579 1580 0
1566 -1580 0
1579 -1580 0
1580 1581 0
-1580 -1581 0
-1254 -1461 1582 0
1254 -1582 0
1461 -1582 0
1582 1583 0
-1582 -1583 0
-1368 -1582 1584 0
1368 -1584 0
1582 -1584 0
-1246 -1584 1585 0
1246 -1585 0
1584 -1585 0
1585 1586 0
-1585 -1586 0
-1433 -1586 1587 0
1433 -1587 0
1586 -1587 0
-1253 -1254 1588 0
1253 -1588 0
1254 -1588 0
1588 1589 0
-1588 -1589 0
-1336 -1589 1590 0
1336 -1590 0
1589 -1590 0
-1527 -1590 1591 0
1527 -1591 0
1590 -1591 0
-1248 -1249 1592 0
1248 -1592 0
1249 -1592 0
1592 1593 0
-1592 -1593 0
-1252 -1593 1594 0
1252 -1594 0
1593 -1594 0
-1591 -1594 1595 0
1591 -1595 0
1594 -1595 0
1595 1596 0
-1595 -1596 0
-1253 -1262 1597 0
1253 -1597 0
1262 -1597 0
-1263 -1281 1598 0
1263 -1598 0
1281 -1598 0
-1255 -1598 1599 0
1255 -1599 0
1598 -1599 0
-1305 -1599 1600 0
1305 -1600 0
1599 -1600 0
-1597 -1600 1601 0
1597 -1601 0
1600 -1601 0
1601 1602 0
-1601 -1602 0
-1596 -1602 1603 0
1596 -1603 0
1602 -1603 0
-1587 -1603 1604 0
1587 -1604 0
1603 -1604 0
-1335 -1418 1605 0
1335 -1605 0
1418 -1605 0
-1269 -1605 1606 0
1269 -1606 0
1605 -1606 0
1606 1607 0
-1606 -1607 0
-1604 -1607 1608 0
1604 -1608 0
1607 -1608 0
1608 1609 0
-1608 -1609 0
-1272 -1330 1610 0
1272 -1610 0
1330 -1610 0
-1318 -1610 1611 0
1318 -1611 0
1610 -1611 0
-1365 -1611 1612 0
1365 -1612 0
1611 -1612 0
1612 1613 0
-1612 -1613 0
-1488 -1611 1614 0
1488 -1614 0
1611 -1614 0
1614 1615 0
-1614 -1615 0
-1613 -1615 1616 0
1613 -1616 0
1615 -1616 0
1616 1617 0
-1616 -1617 0
-1593 -1617 1618 0
1593 -1618 0
1617 -1618 0
1618 1619 0
-1618 -1619 0
-1602 -1619 1620 0
1602 -1620 0
1619 -1620 0
-1370 -1383 1621 0
1370 -1621 0
1383 -1621 0
-1365 -1621 1622 0
1365 -1622 0
1621 -1622 0
1622 1623 0
-1622 -1623 0
-1245 -1622 1624 0
1245 -1624 0
1622 -1624 0
1624 1625 0
-1624 -1625 0
-1444 -1625 1626 0
1444 -1626 0
1625 -1626 0
-1437 -1626 1627 0
1437 -1627 0
1626 -1627 0
-1620 -1627 1628 0
1620 -1628 0
1627 -1628 0
1628 1629 0
-1628 -1629 0
-1414 -1577 1630 0
1414 -1630 0
1577 -1630 0
1630 1631 0
-1630 -1631 0
-1235 -1511 1632 0
1235 -1632 0
1511 -1632 0
1632 1633 0
-1632 -1633 0
-1252 -1288 1634 0
1252 -1634 0
1288 -1634 0
1634 1635 0
-1634 -1635 0
-1633 -1635 1636 0
1633 -1636 0
1635 -1636 0
-1266 -1558 1637 0
1266 -1637 0
1558 -1637 0
1637 1638 0
-1637 -1638 0
-1556 -1638 1639 0
1556 -1639 0
1638 -1639 0
-1636 -1639 1640 0
1636 -1640 0
1639 -1640 0
1640 1641 0
-1640 -1641 0
-1251 -1288 1642 0
1251 -1642 0
1288 -1642 0
1642 1643 0
-1642 -1643 0
-1268 -1309 1644 0
1268 -1644 0
1309 -1644 0
1644 1645 0
-1644 -1645 0
-1334 -1645 1646 0
1334 -1646 0
1645 -1646 0
-1643 -1646 1647 0
1643 -1647 0
1646 -1647 0
1647 1648 0
-1647 -1648 0
-1250 -1298 1649 0
1250 -1649 0
1298 -1649 0
1649 1650 0
-1649 -1650 0
-1444 -1650 1651 0
1444 -1651 0
1650 -1651 0
-1237 -1353 1652 0
1237 -1652 0
1353 -1652 0
1652 1653 0
-1652 -1653 0
-1239 -1355 1654 0
1239 -1654 0
1355 -1654 0
1654 1655 0
-1654 -1655 0
-1653 -1655 1656 0
1653 -1656 0
1655 -1656 0
1656 1657 0
-1656 -1657 0
-1598 -1657 1658 0
1598 -1658 0
1657 -1658 0
-1425 -1658 1659 0
1425 -1659 0
1658 -1659 0
1659 1660 0
-1659 -1660 0
-1528 -1602 1661 0
1528 -1661 0
1602 -1661 0
-1660 -1661 1662 0
1660 -1662 0
1661 -1662 0
-1651 -1662 1663 0
1651 -1663 0
1662 -1663 0
1663 1664 0
-1663 -1664 0
-1232 -1307 1665 0
1232 -1665 0
1307 -1665 0
1665 1666 0
-1665 -1666 0
-1550 -1666 1667 0
1550 -1667 0
1666 -1667 0
1667 1668 0
-1667 -1668 0
-1551 -1668 1669 0
1551 -1669 0
1668 -1669 0
1669 1670 0
-1669 -1670 0
-1421 -1670 1671 0
1421 -1671 0
1670 -1671 0
-1271 -1412 1672 0
1271 -1672 0
1412 -1672 0
1672 1673 0
-1672 -1673 0
-1289 -1673 1674 0
1289 -1674 0
1673 -1674 0
-1414 -1674 1675 0
1414 -1675 0
1674 -1675 0
-1671 -1675 1676 0
1671 -1676 0
1675 -1676 0
1676 1677 0
-1676 -1677 0
-1289 -1568 1678 0
1289 -1678 0
1568 -1678 0
1678 1679 0
-1678 -1679 0
-1250 -1441 1680 0
1250 -1680 0
1441 -1680 0
-1272 -1680 1681 0
1272 -1681 0
1680 -1681 0
1681 1682 0
-1681 -1682 0
-1318 -1593 1683 0
1318 -1683 0
1593 -1683 0
1683 1684 0
-1683 -1684 0
-1312 -1684 1685 0
1312 -1685 0
1684 -1685 0
1685 1686 0
-1685 -1686 0
-1256 -1686 1687 0
1256 -1687 0
1686 -1687 0
1687 1688 0
-1687 -1688 0
-1682 -1688 1689 0
1682 -1689 0
1688 -1689 0
-1338 -1593 1690 0
1338 -1690 0
1593 -1690 0
1690 1691 0
-1690 -1691 0
-1459 -1691 1692 0
1459 -1692 0
1691 -1692 0
1692 1693 0
-1692 -1693 0
-1254 -1693 1694 0
1254 -1694 0
1693 -1694 0
1694 1695 0
-1694 -1695 0
-1303 -1294 1696 0
1303 -1696 0
1294 -1696 0
1696 1697 0
-1696 -1697 0
-1695 -1697 1698 0
1695 -1698 0
1697 -1698 0
-1414 -1698 1699 0
1414 -1699 0
1698 -1699 0
-1689 -1699 1700 0
1689 -1700 0
1699 -1700 0
1700 1701 0
-1700 -1701 0
-1266 -1499 1702 0
1266 -1702 0
1499 -1702 0
-1240 -1262 1703 0
1240 -1703 0
1262 -1703 0
-1702 -1703 1704 0
1702 -1704 0
1703 -1704 0
1704 1705 0
-1704 -1705 0
-1230 -1282 1706 0
1230 -1706 0
1282 -1706 0
1706 1707 0
-1706 -1707 0
-1705 -1707 1708 0
1705 -1708 0
1707 -1708 0
-1238 -1252 1709 0
1238 -1709 0
1252 -1709 0
1709 1710 0
-1709 -1710 0
-1255 -1266 1711 0
1255 -1711 0
1266 -1711 0
1711 1712 0
-1711 -1712 0
-1710 -1712 1713 0
1710 -1713 0
1712 -1713 0
1713 1714 0
-1713 -1714 0
-1500 -1714 1715 0
1500 -1715 0
1714 -1715 0
1715 1716 0
-1715 -1716 0
-1697 -1716 1717 0
1697 -1717 0
1716 -1717 0
-1338 -1597 1718 0
1338 -1718 0
1597 -1718 0
-1264 -1718 1719 0
1264 -1719 0
1718 -1719 0
1719 1720 0
-1719 -1720 0
-1414 -1720 1721 0
1414 -1721 0
1720 -1721 0
-1717 -1721 1722 0
1717 -1722 0
1721 -1722 0
-1708 -1722 1723 0
1708 -1723 0
1722 -1723 0
1723 1724 0
-1723 -1724 0
-1232 -1303 1725 0
1232 -1725 0
1303 -1725 0
1725 1726 0
-1725 -1726 0
-1270 -1305 1727 0
1270 -1727 0
1305 -1727 0
-1243 -1727 1728 0
1243 -1728 0
1727 -1728 0
1728 1729 0
-1728 -1729 0
-1726 -1729 1730 0
1726 -1730 0
1729 -1730 0
1730 1731 0
-1730 -1731 0
-1409 -1731 1732 0
1409 -1732 0
1731 -1732 0
1732 1733 0
-1732 -1733 0
-1469 -1583 1734 0
1469 -1734 0
1583 -1734 0
1734 1735 0
-1734 -1735 0
-1259 -1735 1736 0
1259 -1736 0
1735 -1736 0
1736 1737 0
-1736 -1737 0
-1623 -1737 1738 0
1623 -1738 0
1737 -1738 0
-1252 -1529 1739 0
1252 -1739 0
1529 -1739 0
-1590 -1739 1740 0
1590 -1740 0
1739 -1740 0
1740 1741 0
-1740 -1741 0
-1317 -1520 1742 0
1317 -1742 0
1520 -1742 0
-1611 -1742 1743 0
1611 -1743 0
1742 -1743 0
-1262 -1743 1744 0
1262 -1744 0
1743 -1744 0
1744 1745 0
-1744 -1745 0
-1741 -1745 1746 0
1741 -1746 0
1745 -1746 0
-1602 -1660 1747 0
1602 -1747 0
1660 -1747 0
-1746 -1747 1748 0
1746 -1748 0
1747 -1748 0
-1738 -1748 1749 0
1738 -1749 0
1748 -1749 0
-1733 -1749 1750 0
1733 -1750 0
1749 -1750 0
1750 1751 0
-1750 -1751 0
-1264 -1252 1752 0
1264 -1752 0
1252 -1752 0
-1253 -1248 1753 0
1253 -1753 0
1248 -1753 0
-1752 -1753 1754 0
1752 -1754 0
1753 -1754 0
1754 1755 0
-1754 -1755 0
-1259 -1266 1756 0
1259 -1756 0
1266 -1756 0
-1425 -1756 1757 0
1425 -1757 0
1756 -1757 0
-1246 -1757 1758 0
1246 -1758 0
1757 -1758 0
1758 1759 0
-1758 -1759 0
-1755 -1759 1760 0
1755 -1760 0
1759 -1760 0
1760 1761 0
-1760 -1761 0
-1238 -1761 1762 0
1238 -1762 0
1761 -1762 0
-1598 -1762 1763 0
1598 -1763 0
1762 -1763 0
-1303 -1763 1764 0
1303 -1764 0
1763 -1764 0
1764 1765 0
-1764 -1765 0
-1390 -1470 1766 0
1390 -1766 0
1470 -1766 0
1766 1767 0
-1766 -1767 0
-1765 -1767 1768 0
1765 -1768 0
1767 -1768 0
-1266 -1742 1769 0
1266 -1769 0
1742 -1769 0
1769 1770 0
-1769 -1770 0
-1496 -1770 1771 0
1496 -1771 0
1770 -1771 0
1771 1772 0
-1771 -1772 0
-1502 -1772 1773 0
1502 -1773 0
1772 -1773 0
1773 1774 0
-1773 -1774 0
-1768 -1774 1775 0
1768 -1775 0
1774 -1775 0
1775 1776 0
-1775 -1776 0
-1261 -1276 1777 0
1261 -1777 0
1276 -1777 0
-1262 -1614 1778 0
1262 -1778 0
1614 -1778 0
1778 1779 0
-1778 -1779 0
-1533 -1739 1780 0
1533 -1780 0
1739 -1780 0
1780 1781 0
-1780 -1781 0
-1602 -1781 1782 0
1602 -1782 0
1781 -1782 0
-1244 -1288 1783 0
1244 -1783 0
1288 -1783 0
1783 1784 0
-1783 -1784 0
-1670 -1784 1785 0
1670 -1785 0
1784 -1785 0
1785 1786 0
-1785 -1786 0
-1241 -1786 1787 0
1241 -1787 0
1786 -1787 0
1787 1788 0
-1787 -1788 0
-1733 -1788 1789 0
1733 -1789 0
1788 -1789 0
-1782 -1789 1790 0
1782 -1790 0
1789 -1790 0
-1779 -1790 1791 0
1779 -1791 0
1790 -1791 0
1791 1792 0
-1791 -1792 0
-1241 -1567 1793 0
1241 -1793 0
1567 -1793 0
1793 1794 0
-1793 -1794 0
-1765 -1794 1795 0
1765 -1795 0
1794 -1795 0
-1263 -1614 1796 0
1263 -1796 0
1614 -1796 0
-1248 -1796 1797 0
1248 -1797 0
1796 -1797 0
1797 1798 0
-1797 -1798 0
-1767 -1798 1799 0
1767 -1799 0
1798 -1799 0
-1795 -1799 1800 0
1795 -1800 0
1799 -1800 0
1800 1801 0
-1800 -1801 0
-1261 -1249 1802 0
1261 -1802 0
1249 -1802 0
-1261 -1263 1803 0
1261 -1803 0
1263 -1803 0
-1233 -1270 1804 0
1233 -1804 0
1270 -1804 0
-1696 -1804 1805 0
1696 -1805 0
1804 -1805 0
-1523 -1756 1806 0
1523 -1806 0
1756 -1806 0
1806 1807 0
-1806 -1807 0
-1767 -1807 1808 0
1767 -1808 0
1807 -1808 0
1808 1809 0
-1808 -1809 0
-1810 1809 0
1810 -1809 0
-1811 1805 0
1811 -1805 0
-1812 1803 0
1812 -1803 0
-1813 1802 0
1813 -1802 0
-1814 1801 0
1814 -1801 0
-1815 1792 0
1815 -1792 0
-1816 1777 0
1816 -1777 0
-1817 1776 0
1817 -1776 0
-1818 1751 0
1818 -1751 0
-1819 1724 0
1819 -1724 0
-1820 1701 0
1820 -1701 0
-1821 1679 0
1821 -1679 0
-1822 1677 0
1822 -1677 0
-1823 1664 0
1823 -1664 0
-1824 1288 0
1824 -1288 0
-1825 1648 0
1825 -1648 0
-1826 1641 0
1826 -1641 0
-1827 1298 0
1827 -1298 0
-1828 1631 0
1828 -1631 0
-1829 1629 0
1829 -1629 0
-1830 1609 0
1830 -1609 0
-1831 1581 0
1831 -1581 0
-1832 1563 0
1832 -1563 0
-1833 1545 0
1833 -1545 0
-1834 1518 0
1834 -1518 0
-1835 1456 0
1835 -1456 0
-1836 1424 0
1836 -1424 0
-1837 1399 0
1837 -1399 0
-1838 1352 0
1838 -1352 0
1840 1856 0
-1840 -1856 0
1841 1857 0
-1841 -1857 0
1842 1858 0
-1842 -1858 0
1843 1859 0
-1843 -1859 0
1844 1860 0
-1844 -1860 0
1846 1861 0
-1846 -1861 0
1848 1862 0
-1848 -1862 0
1849 1863 0
-1849 -1863 0
1850 1864 0
-1850 -1864 0
1851 1865 0
-1851 -1865 0
1852 1866 0
-1852 -1866 0
1853 1867 0
-1853 -1867 0
1854 1868 0
-1854 -1868 0
1855 1869 0
-1855 -1869 0
1838 1870 0
-1838 -1870 0
1837 1871 0
-1837 -1871 0
1836 1872 0
-1836 -1872 0
1835 1873 0
-1835 -1873 0
1834 1874 0
-1834 -1874 0
1833 1875 0
-1833 -1875 0
-1838 -1872 1876 0
1838 -1876 0
1872 -1876 0
-1873 -1876 1877 0
1873 -1877 0
1876 -1877 0
-1865 -1866 1878 0
1865 -1878 0
1866 -1878 0
1878 1879 0
-1878 -1879 0
-1871 -1879 1880 0
1871 -1880 0
1879 -1880 0
-1877 -1880 1881 0
1877 -1881 0
1880 -1881 0
-1833 -1881 1882 0
1833 -1882 0
1881 -1882 0
1882 1883 0
-1882 -1883 0
-1871 -1877 1884 0
1871 -1884 0
1877 -1884 0
-1858 -1884 1885 0
1858 -1885 0
1884 -1885 0
-1856 -1885 1886 0
1856 -1886 0
1885 -1886 0
1886 1887 0
-1886 -1887 0
-1883 -1887 1888 0
1883 -1888 0
1887 -1888 0
-1874 -1877 1889 0
1874 -1889 0
1877 -1889 0
-1837 -1875 1890 0
1837 -1890 0
1875 -1890 0
-1889 -1890 1891 0
1889 -1891 0
1890 -1891 0
1891 1892 0
-1891 -1892 0
-1867 -1868 1893 0
1867 -1893 0
1868 -1893 0
1893 1894 0
-1893 -1894 0
-1845 -1872 1895 0
1845 -1895 0
1872 -1895 0
1895 1896 0
-1895 -1896 0
-1870 -1871 1897 0
1870 -1897 0
1871 -1897 0
-1835 -1875 1898 0
1835 -1898 0
1875 -1898 0
-1897 -1898 1899 0
1897 -1899 0
1898 -1899 0
-1874 -1899 1900 0
1874 -1900 0
1899 -1900 0
-1895 -1900 1901 0
1895 -1901 0
1900 -1901 0
-1894 -1901 1902 0
1894 -1902 0
1901 -1902 0
1902 1903 0
-1902 -1903 0
-1892 -1903 1904 0
1892 -1904 0
1903 -1904 0
-1888 -1904 1905 0
1888 -1905 0
1904 -1905 0
-1874 -1875 1906 0
1874 -1906 0
1875 -1906 0
1906 1907 0
-1906 -1907 0
-1834 -1833 1908 0
1834 -1908 0
1833 -1908 0
1908 1909 0
-1908 -1909 0
-1907 -1909 1910 0
1907 -1910 0
1909 -1910 0
-1835 -1876 1911 0
1835 -1911 0
1876 -1911 0
-1910 -1911 1912 0
1910 -1912 0
1911 -1912 0
1912 1913 0
-1912 -1913 0
-1853 -1889 1914 0
1853 -1914 0
1889 -1914 0
1914 1915 0
-1914 -1915 0
-1875 -1914 1916 0
1875 -1916 0
1914 -1916 0
1916 1917 0
-1916 -1917 0
-1913 -1917 1918 0
1913 -1918 0
1917 -1918 0
-1842 -1843 1919 0
1842 -1919 0
1843 -1919 0
1919 1920 0
-1919 -1920 0
-1869 -1889 1921 0
1869 -1921 0
1889 -1921 0
1921 1922 0
-1921 -1922 0
-1874 -1833 1923 0
1874 -1923 0
1833 -1923 0
-1876 -1923 1924 0
1876 -1924 0
1923 -1924 0
1924 1925 0
-1924 -1925 0
-1922 -1925 1926 0
1922 -1926 0
1925 -1926 0
1926 1927 0
-1926 -1927 0
-1920 -1927 1928 0
1920 -1928 0
1927 -1928 0
1928 1929 0
-1928 -1929 0
-1853 -1881 1930 0
1853 -1930 0
1881 -1930 0
1930 1931 0
-1930 -1931 0
-1929 -1931 1932 0
1929 -1932 0
1931 -1932 0
-1867 -1871 1933 0
1867 -1933 0
1871 -1933 0
1933 1934 0
-1933 -1934 0
-1910 -1933 1935 0
1910 -1935 0
1933 -1935 0
-1876 -1935 1936 0
1876 -1936 0
1935 -1936 0
1936 1937 0
-1936 -1937 0
-1840 -1841 1938 0
1840 -1938 0
1841 -1938 0
1938 1939 0
-1938 -1939 0
-1875 -1877 1940 0
1875 -1940 0
1877 -1940 0
-1855 -1940 1941 0
1855 -1941 0
1940 -1941 0
1941 1942 0
-1941 -1942 0
-1834 -1875 1943 0
1834 -1943 0
1875 -1943 0
-1872 -1943 1944 0
1872 -1944 0
1943 -1944 0
-1838 -1944 1945 0
1838 -1945 0
1944 -1945 0
1945 1946 0
-1945 -1946 0
-1942 -1946 1947 0
1942 -1947 0
1946 -1947 0
1947 1948 0
-1947 -1948 0
-1939 -1948 1949 0
1939 -1949 0
1948 -1949 0
1949 1950 0
-1949 -1950 0
-1937 -1950 1951 0
1937 -1951 0
1950 -1951 0
-1932 -1951 1952 0
1932 -1952 0
1951 -1952 0
-1918 -1952 1953 0
1918 -1953 0
1952 -1953 0
-1905 -1953 1954 0
1905 -1954 0
1953 -1954 0
1954 1955 0
-1954 -1955 0
-1857 -1943 1956 0
1857 -1956 0
1943 -1956 0
1956 1957 0
-1956 -1957 0
-1859 -1923 1958 0
1859 -1958 0
1923 -1958 0
1958 1959 0
-1958 -1959 0
-1957 -1959 1960 0
1957 -1960 0
1959 -1960 0
1960 1961 0
-1960 -1961 0
-1876 -1961 1962 0
1876 -1962 0
1961 -1962 0
1962 1963 0
-1962 -1963 0
-1913 -1963 1964 0
1913 -1964 0
1963 -1964 0
1964 1965 0
-1964 -1965 0
-1837 -1965 1966 0
1837 -1966 0
1965 -1966 0
1966 1967 0
-1966 -1967 0
-1842 -1859 1968 0
1842 -1968 0
1859 -1968 0
1968 1969 0
-1968 -1969 0
-1848 -1969 1970 0
1848 -1970 0
1969 -1970 0
1970 1971 0
-1970 -1971 0
-1871 -1878 1972 0
1871 -1972 0
1878 -1972 0
-1914 -1972 1973 0
1914 -1973 0
1972 -1973 0
-1875 -1973 1974 0
1875 -1974 0
1973 -1974 0
-1841 -1974 1975 0
1841 -1975 0
1974 -1975 0
1975 1976 0
-1975 -1976 0
-1971 -1975 1977 0
1971 -1977 0
1975 -1977 0
-1855 -1977 1978 0
1855 -1978 0
1977 -1978 0
1978 1979 0
-1978 -1979 0
-1967 -1979 1980 0
1967 -1980 0
1979 -1980 0
-1860 -1891 1981 0
1860 -1981 0
1891 -1981 0
1981 1982 0
-1981 -1982 0
-1840 -1857 1983 0
1840 -1983 0
1857 -1983 0
1983 1984 0
-1983 -1984 0
-1849 -1984 1985 0
1849 -1985 0
1984 -1985 0
1985 1986 0
-1985 -1986 0
-1974 -1986 1987 0
1974 -1987 0
1986 -1987 0
-1868 -1869 1988 0
1868 -1988 0
1869 -1988 0
1988 1989 0
-1988 -1989 0
-1854 -1855 1990 0
1854 -1990 0
1855 -1990 0
1990 1991 0
-1990 -1991 0
-1989 -1991 1992 0
1989 -1992 0
1991 -1992 0
1992 1993 0
-1992 -1993 0
-1843 -1992 1994 0
1843 -1994 0
1992 -1994 0
1994 1995 0
-1994 -1995 0
-1970 -1995 1996 0
1970 -1996 0
1995 -1996 0
1996 1997 0
-1996 -1997 0
-1987 -1997 1998 0
1987 -1998 0
1997 -1998 0
1998 1999 0
-1998 -1999 0
-1982 -1999 2000 0
1982 -2000 0
1999 -2000 0
-1980 -2000 2001 0
1980 -2001 0
2000 -2001 0
2001 2002 0
-2001 -2002 0
-1875 -1878 2003 0
1875 -2003 0
1878 -2003 0
-1919 -2003 2004 0
1919 -2004 0
2003 -2004 0
2004 2005 0
-2004 -2005 0
-1872 -2005 2006 0
1872 -2006 0
2005 -2006 0
2006 2007 0
-2006 -2007 0
-1874 -2007 2008 0
1874 -2008 0
2007 -2008 0
-1897 -2008 2009 0
1897 -2009 0
2008 -2009 0
-1873 -2009 2010 0
1873 -2010 0
2009 -2010 0
2010 2011 0
-2010 -2011 0
-1836 -1897 2012 0
1836 -2012 0
1897 -2012 0
-1923 -2012 2013 0
1923 -2013 0
2012 -2013 0
2013 2014 0
-2013 -2014 0
-1873 -2012 2015 0
1873 -2015 0
2012 -2015 0
-1833 -2015 2016 0
1833 -2016 0
2015 -2016 0
2016 2017 0
-2016 -2017 0
-1861 -2016 2018 0
1861 -2018 0
2016 -2018 0
2018 2019 0
-2018 -2019 0
-2014 -2019 2020 0
2014 -2020 0
2019 -2020 0
-1834 -1899 2021 0
1834 -2021 0
1899 -2021 0
2021 2022 0
-2021 -2022 0
-1836 -2021 2023 0
1836 -2023 0
2021 -2023 0
2023 2024 0
-2023 -2024 0
-2020 -2024 2025 0
2020 -2025 0
2024 -2025 0
-2011 -2025 2026 0
2011 -2026 0
2025 -2026 0
2026 2027 0
-2026 -2027 0
-1865 -1853 2028 0
1865 -2028 0
1853 -2028 0
-1866 -2028 2029 0
1866 -2029 0
2028 -2029 0
2029 2030 0
-2029 -2030 0
-1871 -2030 2031 0
1871 -2031 0
2030 -2031 0
2031 2032 0
-2031 -2032 0
-1834 -2032 2033 0
1834 -2033 0
2032 -2033 0
-1940 -2033 2034 0
1940 -2034 0
2033 -2034 0
-1983 -2034 2035 0
1983 -2035 0
2034 -2035 0
2035 2036 0
-2035 -2036 0
-1833 -2032 2037 0
1833 -2037 0
2032 -2037 0
-1889 -2037 2038 0
1889 -2038 0
2037 -2038 0
-1968 -2038 2039 0
1968 -2039 0
2038 -2039 0
2039 2040 0
-2039 -2040 0
-2036 -2040 2041 0
2036 -2041 0
2040 -2041 0
-1871 -1874 2042 0
1871 -2042 0
1874 -2042 0
-1872 -1873 2043 0
1872 -2043 0
1873 -2043 0
-2042 -2043 2044 0
2042 -2044 0
2043 -2044 0
-1870 -2004 2045 0
1870 -2045 0
2004 -2045 0
-2044 -2045 2046 0
2044 -2046 0
2045 -2046 0
2046 2047 0
-2046 -2047 0
-1899 -1896 2048 0
1899 -2048 0
1896 -2048 0
2048 2049 0
-2048 -2049 0
-2047 -2049 2050 0
2047 -2050 0
2049 -2050 0
-1834 -2016 2051 0
1834 -2051 0
2016 -2051 0
2051 2052 0
-2051 -2052 0
-1860 -1912 2053 0
1860 -2053 0
1912 -2053 0
2053 2054 0
-2053 -2054 0
-2052 -2054 2055 0
2052 -2055 0
2054 -2055 0
-2050 -2055 2056 0
2050 -2056 0
2055 -2056 0
-2041 -2056 2057 0
2041 -2057 0
2056 -2057 0
-2022 -2057 2058 0
2022 -2058 0
2057 -2058 0
2058 2059 0
-2058 -2059 0
-1843 -1848 2060 0
1843 -2060 0
1848 -2060 0
-1853 -1940 2061 0
1853 -2061 0
1940 -2061 0
2061 2062 0
-2061 -2062 0
-1840 -2061 2063 0
1840 -2063 0
2061 -2063 0
-1972 -2063 2064 0
1972 -2064 0
2063 -2064 0
-1874 -2064 2065 0
1874 -2065 0
2064 -2065 0
2065 2066 0
-2065 -2066 0
-1976 -2066 2067 0
1976 -2067 0
2066 -2067 0
2067 2068 0
-2067 -2068 0
-2060 -2068 2069 0
2060 -2069 0
2068 -2069 0
2069 2070 0
-2069 -2070 0
-1863 -1974 2071 0
1863 -2071 0
1974 -2071 0
2071 2072 0
-2071 -2072 0
-2060 -2071 2073 0
2060 -2073 0
2071 -2073 0
2073 2074 0
-2073 -2074 0
-2070 -2074 2075 0
2070 -2075 0
2074 -2075 0
-1860 -1867 2076 0
1860 -2076 0
1867 -2076 0
2076 2077 0
-2076 -2077 0
-1853 -1879 2078 0
1853 -2078 0
1879 -2078 0
2078 2079 0
-2078 -2079 0
-2077 -2079 2080 0
2077 -2080 0
2079 -2080 0
2080 2081 0
-2080 -2081 0
-1871 -2081 2082 0
1871 -2082 0
2081 -2082 0
2082 2083 0
-2082 -2083 0
-1873 -2083 2084 0
1873 -2084 0
2083 -2084 0
-1934 -1939 2085 0
1934 -2085 0
1939 -2085 0
2085 2086 0
-2085 -2086 0
-2084 -2086 2087 0
2084 -2087 0
2086 -2087 0
2087 2088 0
-2087 -2088 0
-1945 -2088 2089 0
1945 -2089 0
2088 -2089 0
2089 2090 0
-2089 -2090 0
-1858 -1843 2091 0
1858 -2091 0
1843 -2091 0
-2038 -2091 2092 0
2038 -2092 0
2091 -2092 0
2092 2093 0
-2092 -2093 0
-2090 -2093 2094 0
2090 -2094 0
2093 -2094 0
-2075 -2094 2095 0
2075 -2095 0
2094 -2095 0
-1869 -1968 2096 0
1869 -2096 0
1968 -2096 0
2096 2097 0
-2096 -2097 0
-1855 -1983 2098 0
1855 -2098 0
1983 -2098 0
2098 2099 0
-2098 -2099 0
-2097 -2099 2100 0
2097 -2100 0
2099 -2100 0
2100 2101 0
-2100 -2101 0
-1867 -1940 2102 0
1867 -2102 0
1940 -2102 0
-1866 -2102 2103 0
1866 -2103 0
2102 -2103 0
-1851 -2103 2104 0
1851 -2104 0
2103 -2104 0
-2042 -2104 2105 0
2042 -2105 0
2104 -2105 0
-2101 -2105 2106 0
2101 -2106 0
2105 -2106 0
2106 2107 0
-2106 -2107 0
-1860 -2023 2108 0
1860 -2108 0
2023 -2108 0
2108 2109 0
-2108 -2109 0
-2107 -2109 2110 0
2107 -2110 0
2109 -2110 0
-1834 -1882 2111 0
1834 -2111 0
1882 -2111 0
2111 2112 0
-2111 -2112 0
-1871 -1944 2113 0
1871 -2113 0
1944 -2113 0
-1835 -2113 2114 0
1835 -2114 0
2113 -2114 0
-1939 -2114 2115 0
1939 -2115 0
2114 -2115 0
2115 2116 0
-2115 -2116 0
-2112 -2116 2117 0
2112 -2117 0
2116 -2117 0
-2110 -2117 2118 0
2110 -2118 0
2117 -2118 0
-2017 -2118 2119 0
2017 -2119 0
2118 -2119 0
-2095 -2119 2120 0
2095 -2120 0
2119 -2120 0
2120 2121 0
-2120 -2121 0
-1858 -1859 2122 0
1858 -2122 0
1859 -2122 0
2122 2123 0
-2122 -2123 0
-1848 -2122 2124 0
1848 -2124 0
2122 -2124 0
2124 2125 0
-2124 -2125 0
-1849 -1975 2126 0
1849 -2126 0
1975 -2126 0
-2125 -2126 2127 0
2125 -2127 0
2126 -2127 0
2127 2128 0
-2127 -2128 0
-2112 -2128 2129 0
2112 -2129 0
2128 -2129 0
-2042 -2102 2130 0
2042 -2130 0
2102 -2130 0
2130 2131 0
-2130 -2131 0
-1865 -2130 2132 0
1865 -2132 0
2130 -2132 0
-2101 -2132 2133 0
2101 -2133 0
2132 -2133 0
2133 2134 0
-2133 -2134 0
-2011 -2134 2135 0
2011 -2135 0
2134 -2135 0
-1856 -1841 2136 0
1856 -2136 0
1841 -2136 0
-2034 -2136 2137 0
2034 -2137 0
2136 -2137 0
2137 2138 0
-2137 -2138 0
-1920 -1934 2139 0
1920 -2139 0
1934 -2139 0
2139 2140 0
-2139 -2140 0
-2084 -2140 2141 0
2084 -2141 0
2140 -2141 0
2141 2142 0
-2141 -2142 0
-1924 -2142 2143 0
1924 -2143 0
2142 -2143 0
2143 2144 0
-2143 -2144 0
-2138 -2144 2145 0
2138 -2145 0
2144 -2145 0
-2135 -2145 2146 0
2135 -2146 0
2145 -2146 0
-2129 -2146 2147 0
2129 -2147 0
2146 -2147 0
2147 2148 0
-2147 -2148 0
-1911 -1943 2149 0
1911 -2149 0
1943 -2149 0
2149 2150 0
-2149 -2150 0
-1892 -2150 2151 0
1892 -2151 0
2150 -2151 0
-1867 -1923 2152 0
1867 -2152 0
1923 -2152 0
2152 2153 0
-2152 -2153 0
-1871 -1876 2154 0
1871 -2154 0
1876 -2154 0
-2152 -2154 2155 0
2152 -2155 0
2154 -2155 0
2155 2156 0
-2155 -2156 0
-1855 -1873 2157 0
1855 -2157 0
1873 -2157 0
-2155 -2157 2158 0
2155 -2158 0
2157 -2158 0
2158 2159 0
-2158 -2159 0
-1867 -1838 2160 0
1867 -2160 0
1838 -2160 0
-2113 -2160 2161 0
2113 -2161 0
2160 -2161 0
-1855 -2161 2162 0
1855 -2162 0
2161 -2162 0
2162 2163 0
-2162 -2163 0
-2159 -2163 2164 0
2159 -2164 0
2163 -2164 0
-2151 -2164 2165 0
2151 -2165 0
2164 -2165 0
2165 2166 0
-2165 -2166 0
-1911 -1923 2167 0
1911 -2167 0
1923 -2167 0
2167 2168 0
-2167 -2168 0
-1892 -2168 2169 0
1892 -2169 0
2168 -2169 0
-1873 -2161 2170 0
1873 -2170 0
2161 -2170 0
2170 2171 0
-2170 -2171 0
-2156 -2171 2172 0
2156 -2172 0
2171 -2172 0
2172 2173 0
-2172 -2173 0
-1869 -2173 2174 0
1869 -2174 0
2173 -2174 0
2174 2175 0
-2174 -2175 0
-1873 -1834 2176 0
1873 -2176 0
1834 -2176 0
2176 2177 0
-2176 -2177 0
-1875 -2177 2178 0
1875 -2178 0
2177 -2178 0
-2012 -2178 2179 0
2012 -2179 0
2178 -2179 0
2179 2180 0
-2179 -2180 0
-2175 -2180 2181 0
2175 -2181 0
2180 -2181 0
-2017 -2181 2182 0
2017 -2182 0
2181 -2182 0
-2169 -2182 2183 0
2169 -2183 0
2182 -2183 0
2183 2184 0
-2183 -2184 0
-1857 -2064 2185 0
1857 -2185 0
2064 -2185 0
2185 2186 0
-2185 -2186 0
-1971 -2185 2187 0
1971 -2187 0
2185 -2187 0
-1849 -2187 2188 0
1849 -2188 0
2187 -2188 0
2188 2189 0
-2188 -2189 0
-2036 -2189 2190 0
2036 -2190 0
2189 -2190 0
-1856 -1857 2191 0
1856 -2191 0
1857 -2191 0
2191 2192 0
-2191 -2192 0
-1939 -2192 2193 0
1939 -2193 0
2192 -2193 0
-2130 -2193 2194 0
2130 -2194 0
2193 -2194 0
-1851 -1852 2195 0
1851 -2195 0
1852 -2195 0
2195 2196 0
-2195 -2196 0
-1855 -2196 2197 0
1855 -2197 0
2196 -2197 0
-2194 -2197 2198 0
2194 -2198 0
2197 -2198 0
2198 2199 0
-2198 -2199 0
-1856 -1865 2200 0
1856 -2200 0
1865 -2200 0
-1866 -1884 2201 0
1866 -2201 0
1884 -2201 0
-1858 -2201 2202 0
1858 -2202 0
2201 -2202 0
-1908 -2202 2203 0
1908 -2203 0
2202 -2203 0
-2200 -2203 2204 0
2200 -2204 0
2203 -2204 0
2204 2205 0
-2204 -2205 0
-2199 -2205 2206 0
2199 -2206 0
2205 -2206 0
-2190 -2206 2207 0
2190 -2207 0
2206 -2207 0
-1938 -2021 2208 0
1938 -2208 0
2021 -2208 0
-1872 -2208 2209 0
1872 -2209 0
2208 -2209 0
2209 2210 0
-2209 -2210 0
-2207 -2210 2211 0
2207 -2211 0
2210 -2211 0
2211 2212 0
-2211 -2212 0
-1875 -1933 2213 0
1875 -2213 0
1933 -2213 0
-1921 -2213 2214 0
1921 -2214 0
2213 -2214 0
-1968 -2214 2215 0
1968 -2215 0
2214 -2215 0
2215 2216 0
-2215 -2216 0
-2091 -2214 2217 0
2091 -2217 0
2214 -2217 0
2217 2218 0
-2217 -2218 0
-2216 -2218 2219 0
2216 -2219 0
2218 -2219 0
2219 2220 0
-2219 -2220 0
-2196 -2220 2221 0
2196 -2221 0
2220 -2221 0
2221 2222 0
-2221 -2222 0
-2205 -2222 2223 0
2205 -2223 0
2222 -2223 0
-1973 -1986 2224 0
1973 -2224 0
1986 -2224 0
-1968 -2224 2225 0
1968 -2225 0
2224 -2225 0
2225 2226 0
-2225 -2226 0
-1848 -2225 2227 0
1848 -2227 0
2225 -2227 0
2227 2228 0
-2227 -2228 0
-2047 -2228 2229 0
2047 -2229 0
2228 -2229 0
-2040 -2229 2230 0
2040 -2230 0
2229 -2230 0
-2223 -2230 2231 0
2223 -2231 0
2230 -2231 0
2231 2232 0
-2231 -2232 0
-2017 -2180 2233 0
2017 -2233 0
2180 -2233 0
2233 2234 0
-2233 -2234 0
-1838 -2114 2235 0
1838 -2235 0
2114 -2235 0
2235 2236 0
-2235 -2236 0
-1855 -1891 2237 0
1855 -2237 0
1891 -2237 0
2237 2238 0
-2237 -2238 0
-2236 -2238 2239 0
2236 -2239 0
2238 -2239 0
-1869 -2161 2240 0
1869 -2240 0
2161 -2240 0
2240 2241 0
-2240 -2241 0
-2159 -2241 2242 0
2159 -2242 0
2241 -2242 0
-2239 -2242 2243 0
2239 -2243 0
2242 -2243 0
2243 2244 0
-2243 -2244 0
-1854 -1891 2245 0
1854 -2245 0
1891 -2245 0
2245 2246 0
-2245 -2246 0
-1871 -1912 2247 0
1871 -2247 0
1912 -2247 0
2247 2248 0
-2247 -2248 0
-1937 -2248 2249 0
1937 -2249 0
2248 -2249 0
-2246 -2249 2250 0
2246 -2250 0
2249 -2250 0
2250 2251 0
-2250 -2251 0
-1853 -1901 2252 0
1853 -2252 0
1901 -2252 0
2252 2253 0
-2252 -2253 0
-2047 -2253 2254 0
2047 -2254 0
2253 -2254 0
-1840 -1956 2255 0
1840 -2255 0
1956 -2255 0
2255 2256 0
-2255 -2256 0
-1842 -1958 2257 0
1842 -2257 0
1958 -2257 0
2257 2258 0
-2257 -2258 0
-2256 -2258 2259 0
2256 -2259 0
2258 -2259 0
2259 2260 0
-2259 -2260 0
-2201 -2260 2261 0
2201 -2261 0
2260 -2261 0
-2028 -2261 2262 0
2028 -2262 0
2261 -2262 0
2262 2263 0
-2262 -2263 0
-2131 -2205 2264 0
2131 -2264 0
2205 -2264 0
-2263 -2264 2265 0
2263 -2265 0
2264 -2265 0
-2254 -2265 2266 0
2254 -2266 0
2265 -2266 0
2266 2267 0
-2266 -2267 0
-1835 -1910 2268 0
1835 -2268 0
1910 -2268 0
2268 2269 0
-2268 -2269 0
-2153 -2269 2270 0
2153 -2270 0
2269 -2270 0
2270 2271 0
-2270 -2271 0
-2154 -2271 2272 0
2154 -2272 0
2271 -2272 0
2272 2273 0
-2272 -2273 0
-2024 -2273 2274 0
2024 -2274 0
2273 -2274 0
-1874 -2015 2275 0
1874 -2275 0
2015 -2275 0
2275 2276 0
-2275 -2276 0
-1892 -2276 2277 0
1892 -2277 0
2276 -2277 0
-2017 -2277 2278 0
2017 -2278 0
2277 -2278 0
-2274 -2278 2279 0
2274 -2279 0
2278 -2279 0
2279 2280 0
-2279 -2280 0
-1892 -2171 2281 0
1892 -2281 0
2171 -2281 0
2281 2282 0
-2281 -2282 0
-1853 -2044 2283 0
1853 -2283 0
2044 -2283 0
-1875 -2283 2284 0
1875 -2284 0
2283 -2284 0
2284 2285 0
-2284 -2285 0
-1921 -2196 2286 0
1921 -2286 0
2196 -2286 0
2286 2287 0
-2286 -2287 0
-1915 -2287 2288 0
1915 -2288 0
2287 -2288 0
2288 2289 0
-2288 -2289 0
-1859 -2289 2290 0
1859 -2290 0
2289 -2290 0
2290 2291 0
-2290 -2291 0
-2285 -2291 2292 0
2285 -2292 0
2291 -2292 0
-1941 -2196 2293 0
1941 -2293 0
2196 -2293 0
2293 2294 0
-2293 -2294 0
-2062 -2294 2295 0
2062 -2295 0
2294 -2295 0
2295 2296 0
-2295 -2296 0
-1857 -2296 2297 0
1857 -2297 0
2296 -2297 0
2297 2298 0
-2297 -2298 0
-1906 -1897 2299 0
1906 -2299 0
1897 -2299 0
2299 2300 0
-2299 -2300 0
-2298 -2300 2301 0
2298 -2301 0
2300 -2301 0
-2017 -2301 2302 0
2017 -2302 0
2301 -2302 0
-2292 -2302 2303 0
2292 -2303 0
2302 -2303 0
2303 2304 0
-2303 -2304 0
-1869 -2102 2305 0
1869 -2305 0
2102 -2305 0
-1843 -1865 2306 0
1843 -2306 0
1865 -2306 0
-2305 -2306 2307 0
2305 -2307 0
2306 -2307 0
2307 2308 0
-2307 -2308 0
-1833 -1885 2309 0
1833 -2309 0
1885 -2309 0
2309 2310 0
-2309 -2310 0
-2308 -2310 2311 0
2308 -2311 0
2310 -2311 0
-1841 -1855 2312 0
1841 -2312 0
1855 -2312 0
2312 2313 0
-2312 -2313 0
-1858 -1869 2314 0
1858 -2314 0
1869 -2314 0
2314 2315 0
-2314 -2315 0
-2313 -2315 2316 0
2313 -2316 0
2315 -2316 0
2316 2317 0
-2316 -2317 0
-2103 -2317 2318 0
2103 -2318 0
2317 -2318 0
2318 2319 0
-2318 -2319 0
-2300 -2319 2320 0
2300 -2320 0
2319 -2320 0
-1941 -2200 2321 0
1941 -2321 0
2200 -2321 0
-1867 -2321 2322 0
1867 -2322 0
2321 -2322 0
2322 2323 0
-2322 -2323 0
-2017 -2323 2324 0
2017 -2324 0
2323 -2324 0
-2320 -2324 2325 0
2320 -2325 0
2324 -2325 0
-2311 -2325 2326 0
2311 -2326 0
2325 -2326 0
2326 2327 0
-2326 -2327 0
-1835 -1906 2328 0
1835 -2328 0
1906 -2328 0
2328 2329 0
-2328 -2329 0
-1873 -1908 2330 0
1873 -2330 0
1908 -2330 0
-1846 -2330 2331 0
1846 -2331 0
2330 -2331 0
2331 2332 0
-2331 -2332 0
-2329 -2332 2333 0
2329 -2333 0
2332 -2333 0
2333 2334 0
-2333 -2334 0
-2012 -2334 2335 0
2012 -2335 0
2334 -2335 0
2335 2336 0
-2335 -2336 0
-2072 -2186 2337 0
2072 -2337 0
2186 -2337 0
2337 2338 0
-2337 -2338 0
-1862 -2338 2339 0
1862 -2339 0
2338 -2339 0
2339 2340 0
-2339 -2340 0
-2226 -2340 2341 0
2226 -2341 0
2340 -2341 0
-1855 -2132 2342 0
1855 -2342 0
2132 -2342 0
-2193 -2342 2343 0
2193 -2343 0
2342 -2343 0
2343 2344 0
-2343 -2344 0
-1920 -2123 2345 0
1920 -2345 0
2123 -2345 0
-2214 -2345 2346 0
2214 -2346 0
2345 -2346 0
-1865 -2346 2347 0
1865 -2347 0
2346 -2347 0
2347 2348 0
-2347 -2348 0
-2344 -2348 2349 0
2344 -2349 0
2348 -2349 0
-2205 -2263 2350 0
2205 -2350 0
2263 -2350 0
-2349 -2350 2351 0
2349 -2351 0
2350 -2351 0
-2341 -2351 2352 0
2341 -2352 0
2351 -2352 0
-2336 -2352 2353 0
2336 -2353 0
2352 -2353 0
2353 2354 0
-2353 -2354 0
-1867 -1855 2355 0
1867 -2355 0
1855 -2355 0
-1856 -1851 2356 0
1856 -2356 0
1851 -2356 0
-2355 -2356 2357 0
2355 -2357 0
2356 -2357 0
2357 2358 0
-2357 -2358 0
-1862 -1869 2359 0
1862 -2359 0
1869 -2359 0
-2028 -2359 2360 0
2028 -2360 0
2359 -2360 0
-1849 -2360 2361 0
1849 -2361 0
2360 -2361 0
2361 2362 0
-2361 -2362 0
-2358 -2362 2363 0
2358 -2363 0
2362 -2363 0
2363 2364 0
-2363 -2364 0
-1841 -2364 2365 0
1841 -2365 0
2364 -2365 0
-2201 -2365 2366 0
2201 -2366 0
2365 -2366 0
-1906 -2366 2367 0
1906 -2367 0
2366 -2367 0
2367 2368 0
-2367 -2368 0
-1993 -2073 2369 0
1993 -2369 0
2073 -2369 0
2369 2370 0
-2369 -2370 0
-2368 -2370 2371 0
2368 -2371 0
2370 -2371 0
-1869 -2345 2372 0
1869 -2372 0
2345 -2372 0
2372 2373 0
-2372 -2373 0
-2099 -2373 2374 0
2099 -2374 0
2373 -2374 0
2374 2375 0
-2374 -2375 0
-2105 -2375 2376 0
2105 -2376 0
2375 -2376 0
2376 2377 0
-2376 -2377 0
-2371 -2377 2378 0
2371 -2378 0
2377 -2378 0
2378 2379 0
-2378 -2379 0
-1864 -1879 2380 0
1864 -2380 0
1879 -2380 0
-1865 -2217 2381 0
1865 -2381 0
2217 -2381 0
2381 2382 0
-2381 -2382 0
-2136 -2342 2383 0
2136 -2383 0
2342 -2383 0
2383 2384 0
-2383 -2384 0
-2205 -2384 2385 0
2205 -2385 0
2384 -2385 0
-1847 -1891 2386 0
1847 -2386 0
1891 -2386 0
2386 2387 0
-2386 -2387 0
-2273 -2387 2388 0
2273 -2388 0
2387 -2388 0
2388 2389 0
-2388 -2389 0
-1844 -2389 2390 0
1844 -2390 0
2389 -2390 0
2390 2391 0
-2390 -2391 0
-2336 -2391 2392 0
2336 -2392 0
2391 -2392 0
-2385 -2392 2393 0
2385 -2393 0
2392 -2393 0
-2382 -2393 2394 0
2382 -2394 0
2393 -2394 0
2394 2395 0
-2394 -2395 0
-1844 -2170 2396 0
1844 -2396 0
2170 -2396 0
2396 2397 0
-2396 -2397 0
-2368 -2397 2398 0
2368 -2398 0
2397 -2398 0
-1866 -2217 2399 0
1866 -2399 0
2217 -2399 0
-1851 -2399 2400 0
1851 -2400 0
2399 -2400 0
2400 2401 0
-2400 -2401 0
-2370 -2401 2402 0
2370 -2402 0
2401 -2402 0
-2398 -2402 2403 0
2398 -2403 0
2402 -2403 0
2403 2404 0
-2403 -2404 0
-1864 -1852 2405 0
1864 -2405 0
1852 -2405 0
-1864 -1866 2406 0
1864 -2406 0
1866 -2406 0
-1836 -1873 2407 0
1836 -2407 0
1873 -2407 0
-2299 -2407 2408 0
2299 -2408 0
2407 -2408 0
-2126 -2359 2409 0
2126 -2409 0
2359 -2409 0
2409 2410 0
-2409 -2410 0
-2370 -2410 2411 0
2370 -2411 0
2410 -2411 0
2411 2412 0
-2411 -2412 0
-2413 2412 0
2413 -2412 0
-2414 2408 0
2414 -2408 0
-2415 2406 0
2415 -2406 0
-2416 2405 0
2416 -2405 0
-2417 2404 0
2417 -2404 0
-2418 2395 0
2418 -2395 0
-2419 2380 0
2419 -2380 0
-2420 2379 0
2420 -2379 0
-2421 2354 0
2421 -2354 0
-2422 2327 0
2422 -2327 0
-2423 2304 0
2423 -2304 0
-2424 2282 0
2424 -2282 0
-2425 2280 0
2425 -2280 0
-2426 2267 0
2426 -2267 0
-2427 1891 0
2427 -1891 0
-2428 2251 0
2428 -2251 0
-2429 2244 0
2429 -2244 0
-2430 1901 0
2430 -1901 0
-2431 2234 0
2431 -2234 0
-2432 2232 0
2432 -2232 0
-2433 2212 0
2433 -2212 0
-2434 2184 0
2434 -2184 0
-2435 2166 0
2435 -2166 0
-2436 2148 0
2436 -2148 0
-2437 2121 0
2437 -2121 0
-2438 2059 0
2438 -2059 0
-2439 2027 0
2439 -2027 0
-2440 2002 0
2440 -2002 0
-2441 1955 0
2441 -1955 0
2443 2459 0
-2443 -2459 0
2444 2460 0
-2444 -2460 0
2445 2461 0
-2445 -2461 0
2446 2462 0
-2446 -2462 0
2447 2463 0
-2447 -2463 0
2449 2464 0
-2449 -2464 0
2451 2465 0
-2451 -2465 0
2452 2466 0
-2452 -2466 0
2453 2467 0
-2453 -2467 0
2454 2468 0
-2454 -2468 0
2455 2469 0
-2455 -2469 0
2456 2470 0
-2456 -2470 0
2457 2471 0
-2457 -2471 0
2458 2472 0
-2458 -2472 0
2441 2473 0
-2441 -2473 0
2440 2474 0
-2440 -2474 0
2439 2475 0
-2439 -2475 0
2438 2476 0
-2438 -2476 0
2437 2477 0
-2437 -2477 0
2436 2478 0
-2436 -2478 0
-2441 -2475 2479 0
2441 -2479 0
2475 -2479 0
-2476 -2479 2480 0
2476 -2480 0
2479 -2480 0
-2468 -2469 2481 0
2468 -2481 0
2469 -2481 0
2481 2482 0
-2481 -2482 0
-2474 -2482 2483 0
2474 -2483 0
2482 -2483 0
-2480 -2483 2484 0
2480 -2484 0
2483 -2484 0
-2436 -2484 2485 0
2436 -2485 0
2484 -2485 0
2485 2486 0
-2485 -2486 0
-2474 -2480 2487 0
2474 -2487 0
2480 -2487 0
-2461 -2487 2488 0
2461 -2488 0
2487 -2488 0
-2459 -2488 2489 0
2459 -2489 0
2488 -2489 0
2489 2490 0
-2489 -2490 0
-2486 -2490 2491 0
2486 -2491 0
2490 -2491 0
-2477 -2480 2492 0
2477 -2492 0
2480 -2492 0
-2440 -2478 2493 0
2440 -2493 0
2478 -2493 0
-2492 -2493 2494 0
2492 -2494 0
2493 -2494 0
2494 2495 0
-2494 -2495 0
-2470 -2471 2496 0
2470 -2496 0
2471 -2496 0
2496 2497 0
-2496 -2497 0
-2448 -2475 2498 0
2448 -2498 0
2475 -2498 0
2498 2499 0
-2498 -2499 0
-2473 -2474 2500 0
2473 -2500 0
2474 -2500 0
-2438 -2478 2501 0
2438 -2501 0
2478 -2501 0
-2500 -2501 2502 0
2500 -2502 0
2501 -2502 0
-2477 -2502 2503 0
2477 -2503 0
2502 -2503 0
-2498 -2503 2504 0
2498 -2504 0
2503 -2504 0
-2497 -2504 2505 0
2497 -2505 0
2504 -2505 0
2505 2506 0
-2505 -2506 0
-2495 -2506 2507 0
2495 -2507 0
2506 -2507 0
-2491 -2507 2508 0
2491 -2508 0
2507 -2508 0
-2477 -2478 2509 0
2477 -2509 0
2478 -2509 0
2509 2510 0
-2509 -2510 0
-2437 -2436 2511 0
2437 -2511 0
2436 -2511 0
2511 2512 0
-2511 -2512 0
-2510 -2512 2513 0
2510 -2513 0
2512 -2513 0
-2438 -2479 2514 0
2438 -2514 0
2479 -2514 0
-2513 -2514 2515 0
2513 -2515 0
2514 -2515 0
2515 2516 0
-2515 -2516 0
-2456 -2492 2517 0
2456 -2517 0
2492 -2517 0
2517 2518 0
-2517 -2518 0
-2478 -2517 2519 0
2478 -2519 0
2517 -2519 0
2519 2520 0
-2519 -2520 0
-2516 -2520 2521 0
2516 -2521 0
2520 -2521 0
-2445 -2446 2522 0
2445 -2522 0
2446 -2522 0
2522 2523 0
-2522 -2523 0
-2472 -2492 2524 0
2472 -2524 0
2492 -2524 0
2524 2525 0
-2524 -2525 0
-2477 -2436 2526 0
2477 -2526 0
2436 -2526 0
-2479 -2526 2527 0
2479 -2527 0
2526 -2527 0
2527 2528 0
-2527 -2528 0
-2525 -2528 2529 0
2525 -2529 0
2528 -2529 0
2529 2530 0
-2529 -2530 0
-2523 -2530 2531 0
2523 -2531 0
2530 -2531 0
2531 2532 0
-2531 -2532 0
-2456 -2484 2533 0
2456 -2533 0
2484 -2533 0
2533 2534 0
-2533 -2534 0
-2532 -2534 2535 0
2532 -2535 0
2534 -2535 0
-2470 -2474 2536 0
2470 -2536 0
2474 -2536 0
2536 2537 0
-2536 -2537 0
-2513 -2536 2538 0
2513 -2538 0
2536 -2538 0
-2479 -2538 2539 0
2479 -2539 0
2538 -2539 0
2539 2540 0
-2539 -2540 0
-2443 -2444 2541 0
2443 -2541 0
2444 -2541 0
2541 2542 0
-2541 -2542 0
-2478 -2480 2543 0
2478 -2543 0
2480 -2543 0
-2458 -2543 2544 0
2458 -2544 0
2543 -2544 0
2544 2545 0
-2544 -2545 0
-2437 -2478 2546 0
2437 -2546 0
2478 -2546 0
-2475 -2546 2547 0
2475 -2547 0
2546 -2547 0
-2441 -2547 2548 0
2441 -2548 0
2547 -2548 0
2548 2549 0
-2548 -2549 0
-2545 -2549 2550 0
2545 -2550 0
2549 -2550 0
2550 2551 0
-2550 -2551 0
-2542 -2551 2552 0
2542 -2552 0
2551 -2552 0
2552 2553 0
-2552 -2553 0
-2540 -2553 2554 0
2540 -2554 0
2553 -2554 0
-2535 -2554 2555 0
2535 -2555 0
2554 -2555 0
-2521 -2555 2556 0
2521 -2556 0
2555 -2556 0
-2508 -2556 2557 0
2508 -2557 0
2556 -2557 0
2557 2558 0
-2557 -2558 0
-2460 -2546 2559 0
2460 -2559 0
2546 -2559 0
2559 2560 0
-2559 -2560 0
-2462 -2526 2561 0
2462 -2561 0
2526 -2561 0
2561 2562 0
-2561 -2562 0
-2560 -2562 2563 0
2560 -2563 0
2562 -2563 0
2563 2564 0
-2563 -2564 0
-2479 -2564 2565 0
2479 -2565 0
2564 -2565 0
2565 2566 0
-2565 -2566 0
-2516 -2566 2567 0
2516 -2567 0
2566 -2567 0
2567 2568 0
-2567 -2568 0
-2440 -2568 2569 0
2440 -2569 0
2568 -2569 0
2569 2570 0
-2569 -2570 0
-2445 -2462 2571 0
2445 -2571 0
2462 -2571 0
2571 2572 0
-2571 -2572 0
-2451 -2572 2573 0
2451 -2573 0
2572 -2573 0
2573 2574 0
-2573 -2574 0
-2474 -2481 2575 0
2474 -2575 0
2481 -2575 0
-2517 -2575 2576 0
2517 -2576 0
2575 -2576 0
-2478 -2576 2577 0
2478 -2577 0
2576 -2577 0
-2444 -2577 2578 0
2444 -2578 0
2577 -2578 0
2578 2579 0
-2578 -2579 0
-2574 -2578 2580 0
2574 -2580 0
2578 -2580 0
-2458 -2580 2581 0
2458 -2581 0
2580 -2581 0
2581 2582 0
-2581 -2582 0
-2570 -2582 2583 0
2570 -2583 0
2582 -2583 0
-2463 -2494 2584 0
2463 -2584 0
2494 -2584 0
2584 2585 0
-2584 -2585 0
-2443 -2460 2586 0
2443 -2586 0
2460 -2586 0
2586 2587 0
-2586 -2587 0
-2452 -2587 2588 0
2452 -2588 0
2587 -2588 0
2588 2589 0
-2588 -2589 0
-2577 -2589 2590 0
2577 -2590 0
2589 -2590 0
-2471 -2472 2591 0
2471 -2591 0
2472 -2591 0
2591 2592 0
-2591 -2592 0
-2457 -2458 2593 0
2457 -2593 0
2458 -2593 0
2593 2594 0
-2593 -2594 0
-2592 -2594 2595 0
2592 -2595 0
2594 -2595 0
2595 2596 0
-2595 -2596 0
-2446 -2595 2597 0
2446 -2597 0
2595 -2597 0
2597 2598 0
-2597 -2598 0
-2573 -2598 2599 0
2573 -2599 0
2598 -2599 0
2599 2600 0
-2599 -2600 0
-2590 -2600 2601 0
2590 -2601 0
2600 -2601 0
2601 2602 0
-2601 -2602 0
-2585 -2602 2603 0
2585 -2603 0
2602 -2603 0
-2583 -2603 2604 0
2583 -2604 0
2603 -2604 0
2604 2605 0
-2604 -2605 0
-2478 -2481 2606 0
2478 -2606 0
2481 -2606 0
-2522 -2606 2607 0
2522 -2607 0
2606 -2607 0
2607 2608 0
-2607 -2608 0
-2475 -2608 2609 0
2475 -2609 0
2608 -2609 0
2609 2610 0
-2609 -2610 0
-2477 -2610 2611 0
2477 -2611 0
2610 -2611 0
-2500 -2611 2612 0
2500 -2612 0
2611 -2612 0
-2476 -2612 2613 0
2476 -2613 0
2612 -2613 0
2613 2614 0
-2613 -2614 0
-2439 -2500 2615 0
2439 -2615 0
2500 -2615 0
-2526 -2615 2616 0
2526 -2616 0
2615 -2616 0
2616 2617 0
-2616 -2617 0
-2476 -2615 2618 0
2476 -2618 0
2615 -2618 0
-2436 -2618 2619 0
2436 -2619 0
2618 -2619 0
2619 2620 0
-2619 -2620 0
-2464 -2619 2621 0
2464 -2621 0
2619 -2621 0
2621 2622 0
-2621 -2622 0
-2617 -2622 2623 0
2617 -2623 0
2622 -2623 0
-2437 -2502 2624 0
2437 -2624 0
2502 -2624 0
2624 2625 0
-2624 -2625 0
-2439 -2624 2626 0
2439 -2626 0
2624 -2626 0
2626 2627 0
-2626 -2627 0
-2623 -2627 2628 0
2623 -2628 0
2627 -2628 0
-2614 -2628 2629 0
2614 -2629 0
2628 -2629 0
2629 2630 0
-2629 -2630 0
-2468 -2456 2631 0
2468 -2631 0
2456 -2631 0
-2469 -2631 2632 0
2469 -2632 0
2631 -2632 0
2632 2633 0
-2632 -2633 0
-2474 -2633 2634 0
2474 -2634 0
2633 -2634 0
2634 2635 0
-2634 -2635 0
-2437 -2635 2636 0
2437 -2636 0
2635 -2636 0
-2543 -2636 2637 0
2543 -2637 0
2636 -2637 0
-2586 -2637 2638 0
2586 -2638 0
2637 -2638 0
2638 2639 0
-2638 -2639 0
-2436 -2635 2640 0
2436 -2640 0
2635 -2640 0
-2492 -2640 2641 0
2492 -2641 0
2640 -2641 0
-2571 -2641 2642 0
2571 -2642 0
2641 -2642 0
2642 2643 0
-2642 -2643 0
-2639 -2643 2644 0
2639 -2644 0
2643 -2644 0
-2474 -2477 2645 0
2474 -2645 0
2477 -2645 0
-2475 -2476 2646 0
2475 -2646 0
2476 -2646 0
-2645 -2646 2647 0
2645 -2647 0
2646 -2647 0
-2473 -2607 2648 0
2473 -2648 0
2607 -2648 0
-2647 -2648 2649 0
2647 -2649 0
2648 -2649 0
2649 2650 0
-2649 -2650 0
-2502 -2499 2651 0
2502 -2651 0
2499 -2651 0
2651 2652 0
-2651 -2652 0
-2650 -2652 2653 0
2650 -2653 0
2652 -2653 0
-2437 -2619 2654 0
2437 -2654 0
2619 -2654 0
2654 2655 0
-2654 -2655 0
-2463 -2515 2656 0
2463 -2656 0
2515 -2656 0
2656 2657 0
-2656 -2657 0
-2655 -2657 2658 0
2655 -2658 0
2657 -2658 0
-2653 -2658 2659 0
2653 -2659 0
2658 -2659 0
-2644 -2659 2660 0
2644 -2660 0
2659 -2660 0
-2625 -2660 2661 0
2625 -2661 0
2660 -2661 0
2661 2662 0
-2661 -2662 0
-2446 -2451 2663 0
2446 -2663 0
2451 -2663 0
-2456 -2543 2664 0
2456 -2664 0
2543 -2664 0
2664 2665 0
-2664 -2665 0
-2443 -2664 2666 0
2443 -2666 0
2664 -2666 0
-2575 -2666 2667 0
2575 -2667 0
2666 -2667 0
-2477 -2667 2668 0
2477 -2668 0
2667 -2668 0
2668 2669 0
-2668 -2669 0
-2579 -2669 2670 0
2579 -2670 0
2669 -2670 0
2670 2671 0
-2670 -2671 0
-2663 -2671 2672 0
2663 -2672 0
2671 -2672 0
2672 2673 0
-2672 -2673 0
-2466 -2577 2674 0
2466 -2674 0
2577 -2674 0
2674 2675 0
-2674 -2675 0
-2663 -2674 2676 0
2663 -2676 0
2674 -2676 0
2676 2677 0
-2676 -2677 0
-2673 -2677 2678 0
2673 -2678 0
2677 -2678 0
-2463 -2470 2679 0
2463 -2679 0
2470 -2679 0
2679 2680 0
-2679 -2680 0
-2456 -2482 2681 0
2456 -2681 0
2482 -2681 0
2681 2682 0
-2681 -2682 0
-2680 -2682 2683 0
2680 -2683 0
2682 -2683 0
2683 2684 0
-2683 -2684 0
-2474 -2684 2685 0
2474 -2685 0
2684 -2685 0
2685 2686 0
-2685 -2686 0
-2476 -2686 2687 0
2476 -2687 0
2686 -2687 0
-2537 -2542 2688 0
2537 -2688 0
2542 -2688 0
2688 2689 0
-2688 -2689 0
-2687 -2689 2690 0
2687 -2690 0
2689 -2690 0
2690 2691 0
-2690 -2691 0
-2548 -2691 2692 0
2548 -2692 0
2691 -2692 0
2692 2693 0
-2692 -2693 0
-2461 -2446 2694 0
2461 -2694 0
2446 -2694 0
-2641 -2694 2695 0
2641 -2695 0
2694 -2695 0
2695 2696 0
-2695 -2696 0
-2693 -2696 2697 0
2693 -2697 0
2696 -2697 0
-2678 -2697 2698 0
2678 -2698 0
2697 -2698 0
-2472 -2571 2699 0
2472 -2699 0
2571 -2699 0
2699 2700 0
-2699 -2700 0
-2458 -2586 2701 0
2458 -2701 0
2586 -2701 0
2701 2702 0
-2701 -2702 0
-2700 -2702 2703 0
2700 -2703 0
2702 -2703 0
2703 2704 0
-2703 -2704 0
-2470 -2543 2705 0
2470 -2705 0
2543 -2705 0
-2469 -2705 2706 0
2469 -2706 0
2705 -2706 0
-2454 -2706 2707 0
2454 -2707 0
2706 -2707 0
-2645 -2707 2708 0
2645 -2708 0
2707 -2708 0
-2704 -2708 2709 0
2704 -2709 0
2708 -2709 0
2709 2710 0
-2709 -2710 0
-2463 -2626 2711 0
2463 -2711 0
2626 -2711 0
2711 2712 0
-2711 -2712 0
-2710 -2712 2713 0
2710 -2713 0
2712 -2713 0
-2437 -2485 2714 0
2437 -2714 0
2485 -2714 0
2714 2715 0
-2714 -2715 0
-2474 -2547 2716 0
2474 -2716 0
2547 -2716 0
-2438 -2716 2717 0
2438 -2717 0
2716 -2717 0
-2542 -2717 2718 0
2542 -2718 0
2717 -2718 0
2718 2719 0
-2718 -2719 0
-2715 -2719 2720 0
2715 -2720 0
2719 -2720 0
-2713 -2720 2721 0
2713 -2721 0
2720 -2721 0
-2620 -2721 2722 0
2620 -2722 0
2721 -2722 0
-2698 -2722 2723 0
2698 -2723 0
2722 -2723 0
2723 2724 0
-2723 -2724 0
-2461 -2462 2725 0
2461 -2725 0
2462 -2725 0
2725 2726 0
-2725 -2726 0
-2451 -2725 2727 0
2451 -2727 0
2725 -2727 0
2727 2728 0
-2727 -2728 0
-2452 -2578 2729 0
2452 -2729 0
2578 -2729 0
-2728 -2729 2730 0
2728 -2730 0
2729 -2730 0
2730 2731 0
-2730 -2731 0
-2715 -2731 2732 0
2715 -2732 0
2731 -2732 0
-2645 -2705 2733 0
2645 -2733 0
2705 -2733 0
2733 2734 0
-2733 -2734 0
-2468 -2733 2735 0
2468 -2735 0
2733 -2735 0
-2704 -2735 2736 0
2704 -2736 0
2735 -2736 0
2736 2737 0
-2736 -2737 0
-2614 -2737 2738 0
2614 -2738 0
2737 -2738 0
-2459 -2444 2739 0
2459 -2739 0
2444 -2739 0
-2637 -2739 2740 0
2637 -2740 0
2739 -2740 0
2740 2741 0
-2740 -2741 0
-2523 -2537 2742 0
2523 -2742 0
2537 -2742 0
2742 2743 0
-2742 -2743 0
-2687 -2743 2744 0
2687 -2744 0
2743 -2744 0
2744 2745 0
-2744 -2745 0
-2527 -2745 2746 0
2527 -2746 0
2745 -2746 0
2746 2747 0
-2746 -2747 0
-2741 -2747 2748 0
2741 -2748 0
2747 -2748 0
-2738 -2748 2749 0
2738 -2749 0
2748 -2749 0
-2732 -2749 2750 0
2732 -2750 0
2749 -2750 0
2750 2751 0
-2750 -2751 0
-2514 -2546 2752 0
2514 -2752 0
2546 -2752 0
2752 2753 0
-2752 -2753 0
-2495 -2753 2754 0
2495 -2754 0
2753 -2754 0
-2470 -2526 2755 0
2470 -2755 0
2526 -2755 0
2755 2756 0
-2755 -2756 0
-2474 -2479 2757 0
2474 -2757 0
2479 -2757 0
-2755 -2757 2758 0
2755 -2758 0
2757 -2758 0
2758 2759 0
-2758 -2759 0
-2458 -2476 2760 0
2458 -2760 0
2476 -2760 0
-2758 -2760 2761 0
2758 -2761 0
2760 -2761 0
2761 2762 0
-2761 -2762 0
-2470 -2441 2763 0
2470 -2763 0
2441 -2763 0
-2716 -2763 2764 0
2716 -2764 0
2763 -2764 0
-2458 -2764 2765 0
2458 -2765 0
2764 -2765 0
2765 2766 0
-2765 -2766 0
-2762 -2766 2767 0
2762 -2767 0
2766 -2767 0
-2754 -2767 2768 0
2754 -2768 0
2767 -2768 0
2768 2769 0
-2768 -2769 0
-2514 -2526 2770 0
2514 -2770 0
2526 -2770 0
2770 2771 0
-2770 -2771 0
-2495 -2771 2772 0
2495 -2772 0
2771 -2772 0
-2476 -2764 2773 0
2476 -2773 0
2764 -2773 0
2773 2774 0
-2773 -2774 0
-2759 -2774 2775 0
2759 -2775 0
2774 -2775 0
2775 2776 0
-2775 -2776 0
-2472 -2776 2777 0
2472 -2777 0
2776 -2777 0
2777 2778 0
-2777 -2778 0
-2476 -2437 2779 0
2476 -2779 0
2437 -2779 0
2779 2780 0
-2779 -2780 0
-2478 -2780 2781 0
2478 -2781 0
2780 -2781 0
-2615 -2781 2782 0
2615 -2782 0
2781 -2782 0
2782 2783 0
-2782 -2783 0
-2778 -2783 2784 0
2778 -2784 0
2783 -2784 0
-2620 -2784 2785 0
2620 -2785 0
2784 -2785 0
-2772 -2785 2786 0
2772 -2786 0
2785 -2786 0
2786 2787 0
-2786 -2787 0
-2460 -2667 2788 0
2460 -2788 0
2667 -2788 0
2788 2789 0
-2788 -2789 0
-2574 -2788 2790 0
2574 -2790 0
2788 -2790 0
-2452 -2790 2791 0
2452 -2791 0
2790 -2791 0
2791 2792 0
-2791 -2792 0
-2639 -2792 2793 0
2639 -2793 0
2792 -2793 0
-2459 -2460 2794 0
2459 -2794 0
2460 -2794 0
2794 2795 0
-2794 -2795 0
-2542 -2795 2796 0
2542 -2796 0
2795 -2796 0
-2733 -2796 2797 0
2733 -2797 0
2796 -2797 0
-2454 -2455 2798 0
2454 -2798 0
2455 -2798 0
2798 2799 0
-2798 -2799 0
-2458 -2799 2800 0
2458 -2800 0
2799 -2800 0
-2797 -2800 2801 0
2797 -2801 0
2800 -2801 0
2801 2802 0
-2801 -2802 0
-2459 -2468 2803 0
2459 -2803 0
2468 -2803 0
-2469 -2487 2804 0
2469 -2804 0
2487 -2804 0
-2461 -2804 2805 0
2461 -2805 0
2804 -2805 0
-2511 -2805 2806 0
2511 -2806 0
2805 -2806 0
-2803 -2806 2807 0
2803 -2807 0
2806 -2807 0
2807 2808 0
-2807 -2808 0
-2802 -2808 2809 0
2802 -2809 0
2808 -2809 0
-2793 -2809 2810 0
2793 -2810 0
2809 -2810 0
-2541 -2624 2811 0
2541 -2811 0
2624 -2811 0
-2475 -2811 2812 0
2475 -2812 0
2811 -2812 0
2812 2813 0
-2812 -2813 0
-2810 -2813 2814 0
2810 -2814 0
2813 -2814 0
2814 2815 0
-2814 -2815 0
-2478 -2536 2816 0
2478 -2816 0
2536 -2816 0
-2524 -2816 2817 0
2524 -2817 0
2816 -2817 0
-2571 -2817 2818 0
2571 -2818 0
2817 -2818 0
2818 2819 0
-2818 -2819 0
-2694 -2817 2820 0
2694 -2820 0
2817 -2820 0
2820 2821 0
-2820 -2821 0
-2819 -2821 2822 0
2819 -2822 0
2821 -2822 0
2822 2823 0
-2822 -2823 0
-2799 -2823 2824 0
2799 -2824 0
2823 -2824 0
2824 2825 0
-2824 -2825 0
-2808 -2825 2826 0
2808 -2826 0
2825 -2826 0
-2576 -2589 2827 0
2576 -2827 0
2589 -2827 0
-2571 -2827 2828 0
2571 -2828 0
2827 -2828 0
2828 2829 0
-2828 -2829 0
-2451 -2828 2830 0
2451 -2830 0
2828 -2830 0
2830 2831 0
-2830 -2831 0
-2650 -2831 2832 0
2650 -2832 0
2831 -2832 0
-2643 -2832 2833 0
2643 -2833 0
2832 -2833 0
-2826 -2833 2834 0
2826 -2834 0
2833 -2834 0
2834 2835 0
-2834 -2835 0
-2620 -2783 2836 0
2620 -2836 0
2783 -2836 0
2836 2837 0
-2836 -2837 0
-2441 -2717 2838 0
2441 -2838 0
2717 -2838 0
2838 2839 0
-2838 -2839 0
-2458 -2494 2840 0
2458 -2840 0
2494 -2840 0
2840 2841 0
-2840 -2841 0
-2839 -2841 2842 0
2839 -2842 0
2841 -2842 0
-2472 -2764 2843 0
2472 -2843 0
2764 -2843 0
2843 2844 0
-2843 -2844 0
-2762 -2844 2845 0
2762 -2845 0
2844 -2845 0
-2842 -2845 2846 0
2842 -2846 0
2845 -2846 0
2846 2847 0
-2846 -2847 0
-2457 -2494 2848 0
2457 -2848 0
2494 -2848 0
2848 2849 0
-2848 -2849 0
-2474 -2515 2850 0
2474 -2850 0
2515 -2850 0
2850 2851 0
-2850 -2851 0
-2540 -2851 2852 0
2540 -2852 0
2851 -2852 0
-2849 -2852 2853 0
2849 -2853 0
2852 -2853 0
2853 2854 0
-2853 -2854 0
-2456 -2504 2855 0
2456 -2855 0
2504 -2855 0
2855 2856 0
-2855 -2856 0
-2650 -2856 2857 0
2650 -2857 0
2856 -2857 0
-2443 -2559 2858 0
2443 -2858 0
2559 -2858 0
2858 2859 0
-2858 -2859 0
-2445 -2561 2860 0
2445 -2860 0
2561 -2860 0
2860 2861 0
-2860 -2861 0
-2859 -2861 2862 0
2859 -2862 0
2861 -2862 0
2862 2863 0
-2862 -2863 0
-2804 -2863 2864 0
2804 -2864 0
2863 -2864 0
-2631 -2864 2865 0
2631 -2865 0
2864 -2865 0
2865 2866 0
-2865 -2866 0
-2734 -2808 2867 0
2734 -2867 0
2808 -2867 0
-2866 -2867 2868 0
2866 -2868 0
2867 -2868 0
-2857 -2868 2869 0
2857 -2869 0
2868 -2869 0
2869 2870 0
-2869 -2870 0
-2438 -2513 2871 0
2438 -2871 0
2513 -2871 0
2871 2872 0
-2871 -2872 0
-2756 -2872 2873 0
2756 -2873 0
2872 -2873 0
2873 2874 0
-2873 -2874 0
-2757 -2874 2875 0
2757 -2875 0
2874 -2875 0
2875 2876 0
-2875 -2876 0
-2627 -2876 2877 0
2627 -2877 0
2876 -2877 0
-2477 -2618 2878 0
2477 -2878 0
2618 -2878 0
2878 2879 0
-2878 -2879 0
-2495 -2879 2880 0
2495 -2880 0
2879 -2880 0
-2620 -2880 2881 0
2620 -2881 0
2880 -2881 0
-2877 -2881 2882 0
2877 -2882 0
2881 -2882 0
2882 2883 0
-2882 -2883 0
-2495 -2774 2884 0
2495 -2884 0
2774 -2884 0
2884 2885 0
-2884 -2885 0
-2456 -2647 2886 0
2456 -2886 0
2647 -2886 0
-2478 -2886 2887 0
2478 -2887 0
2886 -2887 0
2887 2888 0
-2887 -2888 0
-2524 -2799 2889 0
2524 -2889 0
2799 -2889 0
2889 2890 0
-2889 -2890 0
-2518 -2890 2891 0
2518 -2891 0
2890 -2891 0
2891 2892 0
-2891 -2892 0
-2462 -2892 2893 0
2462 -2893 0
2892 -2893 0
2893 2894 0
-2893 -2894 0
-2888 -2894 2895 0
2888 -2895 0
2894 -2895 0
-2544 -2799 2896 0
2544 -2896 0
2799 -2896 0
2896 2897 0
-2896 -2897 0
-2665 -2897 2898 0
2665 -2898 0
2897 -2898 0
2898 2899 0
-2898 -2899 0
-2460 -2899 2900 0
2460 -2900 0
2899 -2900 0
2900 2901 0
-2900 -2901 0
-2509 -2500 2902 0
2509 -2902 0
2500 -2902 0
2902 2903 0
-2902 -2903 0
-2901 -2903 2904 0
2901 -2904 0
2903 -2904 0
-2620 -2904 2905 0
2620 -2905 0
2904 -2905 0
-2895 -2905 2906 0
2895 -2906 0
2905 -2906 0
2906 2907 0
-2906 -2907 0
-2472 -2705 2908 0
2472 -2908 0
2705 -2908 0
-2446 -2468 2909 0
2446 -2909 0
2468 -2909 0
-2908 -2909 2910 0
2908 -2910 0
2909 -2910 0
2910 2911 0
-2910 -2911 0
-2436 -2488 2912 0
2436 -2912 0
2488 -2912 0
2912 2913 0
-2912 -2913 0
-2911 -2913 2914 0
2911 -2914 0
2913 -2914 0
-2444 -2458 2915 0
2444 -2915 0
2458 -2915 0
2915 2916 0
-2915 -2916 0
-2461 -2472 2917 0
2461 -2917 0
2472 -2917 0
2917 2918 0
-2917 -2918 0
-2916 -2918 2919 0
2916 -2919 0
2918 -2919 0
2919 2920 0
-2919 -2920 0
-2706 -2920 2921 0
2706 -2921 0
2920 -2921 0
2921 2922 0
-2921 -2922 0
-2903 -2922 2923 0
2903 -2923 0
2922 -2923 0
-2544 -2803 2924 0
2544 -2924 0
2803 -2924 0
-2470 -2924 2925 0
2470 -2925 0
2924 -2925 0
2925 2926 0
-2925 -2926 0
-2620 -2926 2927 0
2620 -2927 0
2926 -2927 0
-2923 -2927 2928 0
2923 -2928 0
2927 -2928 0
-2914 -2928 2929 0
2914 -2929 0
2928 -2929 0
2929 2930 0
-2929 -2930 0
-2438 -2509 2931 0
2438 -2931 0
2509 -2931 0
2931 2932 0
-2931 -2932 0
-2476 -2511 2933 0
2476 -2933 0
2511 -2933 0
-2449 -2933 2934 0
2449 -2934 0
2933 -2934 0
2934 2935 0
-2934 -2935 0
-2932 -2935 2936 0
2932 -2936 0
2935 -2936 0
2936 2937 0
-2936 -2937 0
-2615 -2937 2938 0
2615 -2938 0
2937 -2938 0
2938 2939 0
-2938 -2939 0
-2675 -2789 2940 0
2675 -2940 0
2789 -2940 0
2940 2941 0
-2940 -2941 0
-2465 -2941 2942 0
2465 -2942 0
2941 -2942 0
2942 2943 0
-2942 -2943 0
-2829 -2943 2944 0
2829 -2944 0
2943 -2944 0
-2458 -2735 2945 0
2458 -2945 0
2735 -2945 0
-2796 -2945 2946 0
2796 -2946 0
2945 -2946 0
2946 2947 0
-2946 -2947 0
-2523 -2726 2948 0
2523 -2948 0
2726 -2948 0
-2817 -2948 2949 0
2817 -2949 0
2948 -2949 0
-2468 -2949 2950 0
2468 -2950 0
2949 -2950 0
2950 2951 0
-2950 -2951 0
-2947 -2951 2952 0
2947 -2952 0
2951 -2952 0
-2808 -2866 2953 0
2808 -2953 0
2866 -2953 0
-2952 -2953 2954 0
2952 -2954 0
2953 -2954 0
-2944 -2954 2955 0
2944 -2955 0
2954 -2955 0
-2939 -2955 2956 0
2939 -2956 0
2955 -2956 0
2956 2957 0
-2956 -2957 0
-2470 -2458 2958 0
2470 -2958 0
2458 -2958 0
-2459 -2454 2959 0
2459 -2959 0
2454 -2959 0
-2958 -2959 2960 0
2958 -2960 0
2959 -2960 0
2960 2961 0
-2960 -2961 0
-2465 -2472 2962 0
2465 -2962 0
2472 -2962 0
-2631 -2962 2963 0
2631 -2963 0
2962 -2963 0
-2452 -2963 2964 0
2452 -2964 0
2963 -2964 0
2964 2965 0
-2964 -2965 0
-2961 -2965 2966 0
2961 -2966 0
2965 -2966 0
2966 2967 0
-2966 -2967 0
-2444 -2967 2968 0
2444 -2968 0
2967 -2968 0
-2804 -2968 2969 0
2804 -2969 0
2968 -2969 0
-2509 -2969 2970 0
2509 -2970 0
2969 -2970 0
2970 2971 0
-2970 -2971 0
-2596 -2676 2972 0
2596 -2972 0
2676 -2972 0
2972 2973 0
-2972 -2973 0
-2971 -2973 2974 0
2971 -2974 0
2973 -2974 0
-2472 -2948 2975 0
2472 -2975 0
2948 -2975 0
2975 2976 0
-2975 -2976 0
-2702 -2976 2977 0
2702 -2977 0
2976 -2977 0
2977 2978 0
-2977 -2978 0
-2708 -2978 2979 0
2708 -2979 0
2978 -2979 0
2979 2980 0
-2979 -2980 0
-2974 -2980 2981 0
2974 -2981 0
2980 -2981 0
2981 2982 0
-2981 -2982 0
-2467 -2482 2983 0
2467 -2983 0
2482 -2983 0
-2468 -2820 2984 0
2468 -2984 0
2820 -2984 0
2984 2985 0
-2984 -2985 0
-2739 -2945 2986 0
2739 -2986 0
2945 -2986 0
2986 2987 0
-2986 -2987 0
-2808 -2987 2988 0
2808 -2988 0
2987 -2988 0
-2450 -2494 2989 0
2450 -2989 0
2494 -2989 0
2989 2990 0
-2989 -2990 0
-2876 -2990 2991 0
2876 -2991 0
2990 -2991 0
2991 2992 0
-2991 -2992 0
-2447 -2992 2993 0
2447 -2993 0
2992 -2993 0
2993 2994 0
-2993 -2994 0
-2939 -2994 2995 0
2939 -2995 0
2994 -2995 0
-2988 -2995 2996 0
2988 -2996 0
2995 -2996 0
-2985 -2996 2997 0
2985 -2997 0
2996 -2997 0
2997 2998 0
-2997 -2998 0
-2447 -2773 2999 0
2447 -2999 0
2773 -2999 0
2999 3000 0
-2999 -3000 0
-2971 -3000 3001 0
2971 -3001 0
3000 -3001 0
-2469 -2820 3002 0
2469 -3002 0
2820 -3002 0
-2454 -3002 3003 0
2454 -3003 0
3002 -3003 0
3003 3004 0
-3003 -3004 0
-2973 -3004 3005 0
2973 -3005 0
3004 -3005 0
-3001 -3005 3006 0
3001 -3006 0
3005 -3006 0
3006 3007 0
-3006 -3007 0
-2467 -2455 3008 0
2467 -3008 0
2455 -3008 0
-2467 -2469 3009 0
2467 -3009 0
2469 -3009 0
-2439 -2476 3010 0
2439 -3010 0
2476 -3010 0
-2902 -3010 3011 0
2902 -3011 0
3010 -3011 0
-2729 -2962 3012 0
2729 -3012 0
2962 -3012 0
3012 3013 0
-3012 -3013 0
-2973 -3013 3014 0
2973 -3014 0
3013 -3014 0
3014 3015 0
-3014 -3015 0
-3016 3015 0
3016 -3015 0
-3017 3011 0
3017 -3011 0
-3018 3009 0
3018 -3009 0
-3019 3008 0
3019 -3008 0
-3020 3007 0
3020 -3007 0
-3021 2998 0
3021 -2998 0
-3022 2983 0
3022 -2983 0
-3023 2982 0
3023 -2982 0
-3024 2957 0
3024 -2957 0
-3025 2930 0
3025 -2930 0
-3026 2907 0
3026 -2907 0
-3027 2885 0
3027 -2885 0
-3028 2883 0
3028 -2883 0
-3029 2870 0
3029 -2870 0
-3030 2494 0
3030 -2494 0
-3031 2854 0
3031 -2854 0
-3032 2847 0
3032 -2847 0
-3033 2504 0
3033 -2504 0
-3034 2837 0
3034 -2837 0
-3035 2835 0
3035 -2835 0
-3036 2815 0
3036 -2815 0
-3037 2787 0
3037 -2787 0
-3038 2769 0
3038 -2769 0
-3039 2751 0
3039 -2751 0
-3040 2724 0
3040 -2724 0
-3041 2662 0
3041 -2662 0
-3042 2630 0
3042 -2630 0
-3043 2605 0
3043 -2605 0
-3044 2558 0
3044 -2558 0
3046 3062 0
-3046 -3062 0
3047 3063 0
-3047 -3063 0
3048 3064 0
-3048 -3064 0
3049 3065 0
-3049 -3065 0
3050 3066 0
-3050 -3066 0
3052 3067 0
-3052 -3067 0
3054 3068 0
-3054 -3068 0
3055 3069 0
-3055 -3069 0
3056 3070 0
-3056 -3070 0
3057 3071 0
-3057 -3071 0
3058 3072 0
-3058 -3072 0
3059 3073 0
-3059 -3073 0
3060 3074 0
-3060 -3074 0
3061 3075 0
-3061 -3075 0
3044 3076 0
-3044 -3076 0
3043 3077 0
-3043 -3077 0
3042 3078 0
-3042 -3078 0
3041 3079 0
-3041 -3079 0
3040 3080 0
-3040 -3080 0
3039 3081 0
-3039 -3081 0
-3044 -3078 3082 0
3044 -3082 0
3078 -3082 0
-3079 -3082 3083 0
3079 -3083 0
3082 -3083 0
-3071 -3072 3084 0
3071 -3084 0
3072 -3084 0
3084 3085 0
-3084 -3085 0
-3077 -3085 3086 0
3077 -3086 0
3085 -3086 0
-3083 -3086 3087 0
3083 -3087 0
3086 -3087 0
-3039 -3087 3088 0
3039 -3088 0
3087 -3088 0
3088 3089 0
-3088 -3089 0
-3077 -3083 3090 0
3077 -3090 0
3083 -3090 0
-3064 -3090 3091 0
3064 -3091 0
3090 -3091 0
-3062 -3091 3092 0
3062 -3092 0
3091 -3092 0
3092 3093 0
-3092 -3093 0
-3089 -3093 3094 0
3089 -3094 0
3093 -3094 0
-3080 -3083 3095 0
3080 -3095 0
3083 -3095 0
-3043 -3081 3096 0
3043 -3096 0
3081 -3096 0
-3095 -3096 3097 0
3095 -3097 0
3096 -3097 0
3097 3098 0
-3097 -3098 0
-3073 -3074 3099 0
3073 -3099 0
3074 -3099 0
3099 3100 0
-3099 -3100 0
-3051 -3078 3101 0
3051 -3101 0
3078 -3101 0
3101 3102 0
-3101 -3102 0
-3076 -3077 3103 0
3076 -3103 0
3077 -3103 0
-3041 -3081 3104 0
3041 -3104 0
3081 -3104 0
-3103 -3104 3105 0
3103 -3105 0
3104 -3105 0
-3080 -3105 3106 0
3080 -3106 0
3105 -3106 0
-3101 -3106 3107 0
3101 -3107 0
3106 -3107 0
-3100 -3107 3108 0
3100 -3108 0
3107 -3108 0
3108 3109 0
-3108 -3109 0
-3098 -3109 3110 0
3098 -3110 0
3109 -3110 0
-3094 -3110 3111 0
3094 -3111 0
3110 -3111 0
-3080 -3081 3112 0
3080 -3112 0
3081 -3112 0
3112 3113 0
-3112 -3113 0
-3040 -3039 3114 0
3040 -3114 0
3039 -3114 0
3114 3115 0
-3114 -3115 0
-3113 -3115 3116 0
3113 -3116 0
3115 -3116 0
-3041 -3082 3117 0
3041 -3117 0
3082 -3117 0
-3116 -3117 3118 0
3116 -3118 0
3117 -3118 0
3118 3119 0
-3118 -3119 0
-3059 -3095 3120 0
3059 -3120 0
3095 -3120 0
3120 3121 0
-3120 -3121 0
-3081 -3120 3122 0
3081 -3122 0
3120 -3122 0
3122 3123 0
-3122 -3123 0
-3119 -3123 3124 0
3119 -3124 0
3123 -3124 0
-3048 -3049 3125 0
3048 -3125 0
3049 -3125 0
3125 3126 0
-3125 -3126 0
-3075 -3095 3127 0
3075 -3127 0
3095 -3127 0
3127 3128 0
-3127 -3128 0
-3080 -3039 3129 0
3080 -3129 0
3039 -3129 0
-3082 -3129 3130 0
3082 -3130 0
3129 -3130 0
3130 3131 0
-3130 -3131 0
-3128 -3131 3132 0
3128 -3132 0
3131 -3132 0
3132 3133 0
-3132 -3133 0
-3126 -3133 3134 0
3126 -3134 0
3133 -3134 0
3134 3135 0
-3134 -3135 0
-3059 -3087 3136 0
3059 -3136 0
3087 -3136 0
3136 3137 0
-3136 -3137 0
-3135 -3137 3138 0
3135 -3138 0
3137 -3138 0
-3073 -3077 3139 0
3073 -3139 0
3077 -3139 0
3139 3140 0
-3139 -3140 0
-3116 -3139 3141 0
3116 -3141 0
3139 -3141 0
-3082 -3141 3142 0
3082 -3142 0
3141 -3142 0
3142 3143 0
-3142 -3143 0
-3046 -3047 3144 0
3046 -3144 0
3047 -3144 0
3144 3145 0
-3144 -3145 0
-3081 -3083 3146 0
3081 -3146 0
3083 -3146 0
-3061 -3146 3147 0
3061 -3147 0
3146 -3147 0
3147 3148 0
-3147 -3148 0
-3040 -3081 3149 0
3040 -3149 0
3081 -3149 0
-3078 -3149 3150 0
3078 -3150 0
3149 -3150 0
-3044 -3150 3151 0
3044 -3151 0
3150 -3151 0
3151 3152 0
-3151 -3152 0
-3148 -3152 3153 0
3148 -3153 0
3152 -3153 0
3153 3154 0
-3153 -3154 0
-3145 -3154 3155 0
3145 -3155 0
3154 -3155 0
3155 3156 0
-3155 -3156 0
-3143 -3156 3157 0
3143 -3157 0
3156 -3157 0
-3138 -3157 3158 0
3138 -3158 0
3157 -3158 0
-3124 -3158 3159 0
3124 -3159 0
3158 -3159 0
-3111 -3159 3160 0
3111 -3160 0
3159 -3160 0
3160 3161 0
-3160 -3161 0
-3063 -3149 3162 0
3063 -3162 0
3149 -3162 0
3162 3163 0
-3162 -3163 0
-3065 -3129 3164 0
3065 -3164 0
3129 -3164 0
3164 3165 0
-3164 -3165 0
-3163 -3165 3166 0
3163 -3166 0
3165 -3166 0
3166 3167 0
-3166 -3167 0
-3082 -3167 3168 0
3082 -3168 0
3167 -3168 0
3168 3169 0
-3168 -3169 0
-3119 -3169 3170 0
3119 -3170 0
3169 -3170 0
3170 3171 0
-3170 -3171 0
-3043 -3171 3172 0
3043 -3172 0
3171 -3172 0
3172 3173 0
-3172 -3173 0
-3048 -3065 3174 0
3048 -3174 0
3065 -3174 0
3174 3175 0
-3174 -3175 0
-3054 -3175 3176 0
3054 -3176 0
3175 -3176 0
3176 3177 0
-3176 -3177 0
-3077 -3084 3178 0
3077 -3178 0
3084 -3178 0
-3120 -3178 3179 0
3120 -3179 0
3178 -3179 0
-3081 -3179 3180 0
3081 -3180 0
3179 -3180 0
-3047 -3180 3181 0
3047 -3181 0
3180 -3181 0
3181 3182 0
-3181 -3182 0
-3177 -3181 3183 0
3177 -3183 0
3181 -3183 0
-3061 -3183 3184 0
3061 -3184 0
3183 -3184 0
3184 3185 0
-3184 -3185 0
-3173 -3185 3186 0
3173 -3186 0
3185 -3186 0
-3066 -3097 3187 0
3066 -3187 0
3097 -3187 0
3187 3188 0
-3187 -3188 0
-3046 -3063 3189 0
3046 -3189 0
3063 -3189 0
3189 3190 0
-3189 -3190 0
-3055 -3190 3191 0
3055 -3191 0
3190 -3191 0
3191 3192 0
-3191 -3192 0
-3180 -3192 3193 0
3180 -3193 0
3192 -3193 0
-3074 -3075 3194 0
3074 -3194 0
3075 -3194 0
3194 3195 0
-3194 -3195 0
-3060 -3061 3196 0
3060 -3196 0
3061 -3196 0
3196 3197 0
-3196 -3197 0
-3195 -3197 3198 0
3195 -3198 0
3197 -3198 0
3198 3199 0
-3198 -3199 0
-3049 -3198 3200 0
3049 -3200 0
3198 -3200 0
3200 3201 0
-3200 -3201 0
-3176 -3201 3202 0
3176 -3202 0
3201 -3202 0
3202 3203 0
-3202 -3203 0
-3193 -3203 3204 0
3193 -3204 0
3203 -3204 0
3204 3205 0
-3204 -3205 0
-3188 -3205 3206 0
3188 -3206 0
3205 -3206 0
-3186 -3206 3207 0
3186 -3207 0
3206 -3207 0
3207 3208 0
-3207 -3208 0
-3081 -3084 3209 0
3081 -3209 0
3084 -3209 0
-3125 -3209 3210 0
3125 -3210 0
3209 -3210 0
3210 3211 0
-3210 -3211 0
-3078 -3211 3212 0
3078 -3212 0
3211 -3212 0
3212 3213 0
-3212 -3213 0
-3080 -3213 3214 0
3080 -3214 0
3213 -3214 0
-3103 -3214 3215 0
3103 -3215 0
3214 -3215 0
-3079 -3215 3216 0
3079 -3216 0
3215 -3216 0
3216 3217 0
-3216 -3217 0
-3042 -3103 3218 0
3042 -3218 0
3103 -3218 0
-3129 -3218 3219 0
3129 -3219 0
3218 -3219 0
3219 3220 0
-3219 -3220 0
-3079 -3218 3221 0
3079 -3221 0
3218 -3221 0
-3039 -3221 3222 0
3039 -3222 0
3221 -3222 0
3222 3223 0
-3222 -3223 0
-3067 -3222 3224 0
3067 -3224 0
3222 -3224 0
3224 3225 0
-3224 -3225 0
-3220 -3225 3226 0
3220 -3226 0
3225 -3226 0
-3040 -3105 3227 0
3040 -3227 0
3105 -3227 0
3227 3228 0
-3227 -3228 0
-3042 -3227 3229 0
3042 -3229 0
3227 -3229 0
3229 3230 0
-3229 -3230 0
-3226 -3230 3231 0
3226 -3231 0
3230 -3231 0
-3217 -3231 3232 0
3217 -3232 0
3231 -3232 0
3232 3233 0
-3232 -3233 0
-3071 -3059 3234 0
3071 -3234 0
3059 -3234 0
-3072 -3234 3235 0
3072 -3235 0
3234 -3235 0
3235 3236 0
-3235 -3236 0
-3077 -3236 3237 0
3077 -3237 0
3236 -3237 0
3237 3238 0
-3237 -3238 0
-3040 -3238 3239 0
3040 -3239 0
3238 -3239 0
-3146 -3239 3240 0
3146 -3240 0
3239 -3240 0
-3189 -3240 3241 0
3189 -3241 0
3240 -3241 0
3241 3242 0
-3241 -3242 0
-3039 -3238 3243 0
3039 -3243 0
3238 -3243 0
-3095 -3243 3244 0
3095 -3244 0
3243 -3244 0
-3174 -3244 3245 0
3174 -3245 0
3244 -3245 0
3245 3246 0
-3245 -3246 0
-3242 -3246 3247 0
3242 -3247 0
3246 -3247 0
-3077 -3080 3248 0
3077 -3248 0
3080 -3248 0
-3078 -3079 3249 0
3078 -3249 0
3079 -3249 0
-3248 -3249 3250 0
3248 -3250 0
3249 -3250 0
-3076 -3210 3251 0
3076 -3251 0
3210 -3251 0
-3250 -3251 3252 0
3250 -3252 0
3251 -3252 0
3252 3253 0
-3252 -3253 0
-3105 -3102 3254 0
3105 -3254 0
3102 -3254 0
3254 3255 0
-3254 -3255 0
-3253 -3255 3256 0
3253 -3256 0
3255 -3256 0
-3040 -3222 3257 0
3040 -3257 0
3222 -3257 0
3257 3258 0
-3257 -3258 0
-3066 -3118 3259 0
3066 -3259 0
3118 -3259 0
3259 3260 0
-3259 -3260 0
-3258 -3260 3261 0
3258 -3261 0
3260 -3261 0
-3256 -3261 3262 0
3256 -3262 0
3261 -3262 0
-3247 -3262 3263 0
3247 -3263 0
3262 -3263 0
-3228 -3263 3264 0
3228 -3264 0
3263 -3264 0
3264 3265 0
-3264 -3265 0
-3049 -3054 3266 0
3049 -3266 0
3054 -3266 0
-3059 -3146 3267 0
3059 -3267 0
3146 -3267 0
3267 3268 0
-3267 -3268 0
-3046 -3267 3269 0
3046 -3269 0
3267 -3269 0
-3178 -3269 3270 0
3178 -3270 0
3269 -3270 0
-3080 -3270 3271 0
3080 -3271 0
3270 -3271 0
3271 3272 0
-3271 -3272 0
-3182 -3272 3273 0
3182 -3273 0
3272 -3273 0
3273 3274 0
-3273 -3274 0
-3266 -3274 3275 0
3266 -3275 0
3274 -3275 0
3275 3276 0
-3275 -3276 0
-3069 -3180 3277 0
3069 -3277 0
3180 -3277 0
3277 3278 0
-3277 -3278 0
-3266 -3277 3279 0
3266 -3279 0
3277 -3279 0
3279 3280 0
-3279 -3280 0
-3276 -3280 3281 0
3276 -3281 0
3280 -3281 0
-3066 -3073 3282 0
3066 -3282 0
3073 -3282 0
3282 3283 0
-3282 -3283 0
-3059 -3085 3284 0
3059 -3284 0
3085 -3284 0
3284 3285 0
-3284 -3285 0
-3283 -3285 3286 0
3283 -3286 0
3285 -3286 0
3286 3287 0
-3286 -3287 0
-3077 -3287 3288 0
3077 -3288 0
3287 -3288 0
3288 3289 0
-3288 -3289 0
-3079 -3289 3290 0
3079 -3290 0
3289 -3290 0
-3140 -3145 3291 0
3140 -3291 0
3145 -3291 0
3291 3292 0
-3291 -3292 0
-3290 -3292 3293 0
3290 -3293 0
3292 -3293 0
3293 3294 0
-3293 -3294 0
-3151 -3294 3295 0
3151 -3295 0
3294 -3295 0
3295 3296 0
-3295 -3296 0
-3064 -3049 3297 0
3064 -3297 0
3049 -3297 0
-3244 -3297 3298 0
3244 -3298 0
3297 -3298 0
3298 3299 0
-3298 -3299 0
-3296 -3299 3300 0
3296 -3300 0
3299 -3300 0
-3281 -3300 3301 0
3281 -3301 0
3300 -3301 0
-3075 -3174 3302 0
3075 -3302 0
3174 -3302 0
3302 3303 0
-3302 -3303 0
-3061 -3189 3304 0
3061 -3304 0
3189 -3304 0
3304 3305 0
-3304 -3305 0
-3303 -3305 3306 0
3303 -3306 0
3305 -3306 0
3306 3307 0
-3306 -3307 0
-3073 -3146 3308 0
3073 -3308 0
3146 -3308 0
-3072 -3308 3309 0
3072 -3309 0
3308 -3309 0
-3057 -3309 3310 0
3057 -3310 0
3309 -3310 0
-3248 -3310 3311 0
3248 -3311 0
3310 -3311 0
-3307 -3311 3312 0
3307 -3312 0
3311 -3312 0
3312 3313 0
-3312 -3313 0
-3066 -3229 3314 0
3066 -3314 0
3229 -3314 0
3314 3315 0
-3314 -3315 0
-3313 -3315 3316 0
3313 -3316 0
3315 -3316 0
-3040 -3088 3317 0
3040 -3317 0
3088 -3317 0
3317 3318 0
-3317 -3318 0
-3077 -3150 3319 0
3077 -3319 0
3150 -3319 0
-3041 -3319 3320 0
3041 -3320 0
3319 -3320 0
-3145 -3320 3321 0
3145 -3321 0
3320 -3321 0
3321 3322 0
-3321 -3322 0
-3318 -3322 3323 0
3318 -3323 0
3322 -3323 0
-3316 -3323 3324 0
3316 -3324 0
3323 -3324 0
-3223 -3324 3325 0
3223 -3325 0
3324 -3325 0
-3301 -3325 3326 0
3301 -3326 0
3325 -3326 0
3326 3327 0
-3326 -3327 0
-3064 -3065 3328 0
3064 -3328 0
3065 -3328 0
3328 3329 0
-3328 -3329 0
-3054 -3328 3330 0
3054 -3330 0
3328 -3330 0
3330 3331 0
-3330 -3331 0
-3055 -3181 3332 0
3055 -3332 0
3181 -3332 0
-3331 -3332 3333 0
3331 -3333 0
3332 -3333 0
3333 3334 0
-3333 -3334 0
-3318 -3334 3335 0
3318 -3335 0
3334 -3335 0
-3248 -3308 3336 0
3248 -3336 0
3308 -3336 0
3336 3337 0
-3336 -3337 0
-3071 -3336 3338 0
3071 -3338 0
3336 -3338 0
-3307 -3338 3339 0
3307 -3339 0
3338 -3339 0
3339 3340 0
-3339 -3340 0
-3217 -3340 3341 0
3217 -3341 0
3340 -3341 0
-3062 -3047 3342 0
3062 -3342 0
3047 -3342 0
-3240 -3342 3343 0
3240 -3343 0
3342 -3343 0
3343 3344 0
-3343 -3344 0
-3126 -3140 3345 0
3126 -3345 0
3140 -3345 0
3345 3346 0
-3345 -3346 0
-3290 -3346 3347 0
3290 -3347 0
3346 -3347 0
3347 3348 0
-3347 -3348 0
-3130 -3348 3349 0
3130 -3349 0
3348 -3349 0
3349 3350 0
-3349 -3350 0
-3344 -3350 3351 0
3344 -3351 0
3350 -3351 0
-3341 -3351 3352 0
3341 -3352 0
3351 -3352 0
-3335 -3352 3353 0
3335 -3353 0
3352 -3353 0
3353 3354 0
-3353 -3354 0
-3117 -3149 3355 0
3117 -3355 0
3149 -3355 0
3355 3356 0
-3355 -3356 0
-3098 -3356 3357 0
3098 -3357 0
3356 -3357 0
-3073 -3129 3358 0
3073 -3358 0
3129 -3358 0
3358 3359 0
-3358 -3359 0
-3077 -3082 3360 0
3077 -3360 0
3082 -3360 0
-3358 -3360 3361 0
3358 -3361 0
3360 -3361 0
3361 3362 0
-3361 -3362 0
-3061 -3079 3363 0
3061 -3363 0
3079 -3363 0
-3361 -3363 3364 0
3361 -3364 0
3363 -3364 0
3364 3365 0
-3364 -3365 0
-3073 -3044 3366 0
3073 -3366 0
3044 -3366 0
-3319 -3366 3367 0
3319 -3367 0
3366 -3367 0
-3061 -3367 3368 0
3061 -3368 0
3367 -3368 0
3368 3369 0
-3368 -3369 0
-3365 -3369 3370 0
3365 -3370 0
3369 -3370 0
-3357 -3370 3371 0
3357 -3371 0
3370 -3371 0
3371 3372 0
-3371 -3372 0
-3117 -3129 3373 0
3117 -3373 0
3129 -3373 0
3373 3374 0
-3373 -3374 0
-3098 -3374 3375 0
3098 -3375 0
3374 -3375 0
-3079 -3367 3376 0
3079 -3376 0
3367 -3376 0
3376 3377 0
-3376 -3377 0
-3362 -3377 3378 0
3362 -3378 0
3377 -3378 0
3378 3379 0
-3378 -3379 0
-3075 -3379 3380 0
3075 -3380 0
3379 -3380 0
3380 3381 0
-3380 -3381 0
-3079 -3040 3382 0
3079 -3382 0
3040 -3382 0
3382 3383 0
-3382 -3383 0
-3081 -3383 3384 0
3081 -3384 0
3383 -3384 0
-3218 -3384 3385 0
3218 -3385 0
3384 -3385 0
3385 3386 0
-3385 -3386 0
-3381 -3386 3387 0
3381 -3387 0
3386 -3387 0
-3223 -3387 3388 0
3223 -3388 0
3387 -3388 0
-3375 -3388 3389 0
3375 -3389 0
3388 -3389 0
3389 3390 0
-3389 -3390 0
-3063 -3270 3391 0
3063 -3391 0
3270 -3391 0
3391 3392 0
-3391 -3392 0
-3177 -3391 3393 0
3177 -3393 0
3391 -3393 0
-3055 -3393 3394 0
3055 -3394 0
3393 -3394 0
3394 3395 0
-3394 -3395 0
-3242 -3395 3396 0
3242 -3396 0
3395 -3396 0
-3062 -3063 3397 0
3062 -3397 0
3063 -3397 0
3397 3398 0
-3397 -3398 0
-3145 -3398 3399 0
3145 -3399 0
3398 -3399 0
-3336 -3399 3400 0
3336 -3400 0
3399 -3400 0
-3057 -3058 3401 0
3057 -3401 0
3058 -3401 0
3401 3402 0
-3401 -3402 0
-3061 -3402 3403 0
3061 -3403 0
3402 -3403 0
-3400 -3403 3404 0
3400 -3404 0
3403 -3404 0
3404 3405 0
-3404 -3405 0
-3062 -3071 3406 0
3062 -3406 0
3071 -3406 0
-3072 -3090 3407 0
3072 -3407 0
3090 -3407 0
-3064 -3407 3408 0
3064 -3408 0
3407 -3408 0
-3114 -3408 3409 0
3114 -3409 0
3408 -3409 0
-3406 -3409 3410 0
3406 -3410 0
3409 -3410 0
3410 3411 0
-3410 -3411 0
-3405 -3411 3412 0
3405 -3412 0
3411 -3412 0
-3396 -3412 3413 0
3396 -3413 0
3412 -3413 0
-3144 -3227 3414 0
3144 -3414 0
3227 -3414 0
-3078 -3414 3415 0
3078 -3415 0
3414 -3415 0
3415 3416 0
-3415 -3416 0
-3413 -3416 3417 0
3413 -3417 0
3416 -3417 0
3417 3418 0
-3417 -3418 0
-3081 -3139 3419 0
3081 -3419 0
3139 -3419 0
-3127 -3419 3420 0
3127 -3420 0
3419 -3420 0
-3174 -3420 3421 0
3174 -3421 0
3420 -3421 0
3421 3422 0
-3421 -3422 0
-3297 -3420 3423 0
3297 -3423 0
3420 -3423 0
3423 3424 0
-3423 -3424 0
-3422 -3424 3425 0
3422 -3425 0
3424 -3425 0
3425 3426 0
-3425 -3426 0
-3402 -3426 3427 0
3402 -3427 0
3426 -3427 0
3427 3428 0
-3427 -3428 0
-3411 -3428 3429 0
3411 -3429 0
3428 -3429 0
-3179 -3192 3430 0
3179 -3430 0
3192 -3430 0
-3174 -3430 3431 0
3174 -3431 0
3430 -3431 0
3431 3432 0
-3431 -3432 0
-3054 -3431 3433 0
3054 -3433 0
3431 -3433 0
3433 3434 0
-3433 -3434 0
-3253 -3434 3435 0
3253 -3435 0
3434 -3435 0
-3246 -3435 3436 0
3246 -3436 0
3435 -3436 0
-3429 -3436 3437 0
3429 -3437 0
3436 -3437 0
3437 3438 0
-3437 -3438 0
-3223 -3386 3439 0
3223 -3439 0
3386 -3439 0
3439 3440 0
-3439 -3440 0
-3044 -3320 3441 0
3044 -3441 0
3320 -3441 0
3441 3442 0
-3441 -3442 0
-3061 -3097 3443 0
3061 -3443 0
3097 -3443 0
3443 3444 0
-3443 -3444 0
-3442 -3444 3445 0
3442 -3445 0
3444 -3445 0
-3075 -3367 3446 0
3075 -3446 0
3367 -3446 0
3446 3447 0
-3446 -3447 0
-3365 -3447 3448 0
3365 -3448 0
3447 -3448 0
-3445 -3448 3449 0
3445 -3449 0
3448 -3449 0
3449 3450 0
-3449 -3450 0
-3060 -3097 3451 0
3060 -3451 0
3097 -3451 0
3451 3452 0
-3451 -3452 0
-3077 -3118 3453 0
3077 -3453 0
3118 -3453 0
3453 3454 0
-3453 -3454 0
-3143 -3454 3455 0
3143 -3455 0
3454 -3455 0
-3452 -3455 3456 0
3452 -3456 0
3455 -3456 0
3456 3457 0
-3456 -3457 0
-3059 -3107 3458 0
3059 -3458 0
3107 -3458 0
3458 3459 0
-3458 -3459 0
-3253 -3459 3460 0
3253 -3460 0
3459 -3460 0
-3046 -3162 3461 0
3046 -3461 0
3162 -3461 0
3461 3462 0
-3461 -3462 0
-3048 -3164 3463 0
3048 -3463 0
3164 -3463 0
3463 3464 0
-3463 -3464 0
-3462 -3464 3465 0
3462 -3465 0
3464 -3465 0
3465 3466 0
-3465 -3466 0
-3407 -3466 3467 0
3407 -3467 0
3466 -3467 0
-3234 -3467 3468 0
3234 -3468 0
3467 -3468 0
3468 3469 0
-3468 -3469 0
-3337 -3411 3470 0
3337 -3470 0
3411 -3470 0
-3469 -3470 3471 0
3469 -3471 0
3470 -3471 0
-3460 -3471 3472 0
3460 -3472 0
3471 -3472 0
3472 3473 0
-3472 -3473 0
-3041 -3116 3474 0
3041 -3474 0
3116 -3474 0
3474 3475 0
-3474 -3475 0
-3359 -3475 3476 0
3359 -3476 0
3475 -3476 0
3476 3477 0
-3476 -3477 0
-3360 -3477 3478 0
3360 -3478 0
3477 -3478 0
3478 3479 0
-3478 -3479 0
-3230 -3479 3480 0
3230 -3480 0
3479 -3480 0
-3080 -3221 3481 0
3080 -3481 0
3221 -3481 0
3481 3482 0
-3481 -3482 0
-3098 -3482 3483 0
3098 -3483 0
3482 -3483 0
-3223 -3483 3484 0
3223 -3484 0
3483 -3484 0
-3480 -3484 3485 0
3480 -3485 0
3484 -3485 0
3485 3486 0
-3485 -3486 0
-3098 -3377 3487 0
3098 -3487 0
3377 -3487 0
3487 3488 0
-3487 -3488 0
-3059 -3250 3489 0
3059 -3489 0
3250 -3489 0
-3081 -3489 3490 0
3081 -3490 0
3489 -3490 0
3490 3491 0
-3490 -3491 0
-3127 -3402 3492 0
3127 -3492 0
3402 -3492 0
3492 3493 0
-3492 -3493 0
-3121 -3493 3494 0
3121 -3494 0
3493 -3494 0
3494 3495 0
-3494 -3495 0
-3065 -3495 3496 0
3065 -3496 0
3495 -3496 0
3496 3497 0
-3496 -3497 0
-3491 -3497 3498 0
3491 -3498 0
3497 -3498 0
-3147 -3402 3499 0
3147 -3499 0
3402 -3499 0
3499 3500 0
-3499 -3500 0
-3268 -3500 3501 0
3268 -3501 0
3500 -3501 0
3501 3502 0
-3501 -3502 0
-3063 -3502 3503 0
3063 -3503 0
3502 -3503 0
3503 3504 0
-3503 -3504 0
-3112 -3103 3505 0
3112 -3505 0
3103 -3505 0
3505 3506 0
-3505 -3506 0
-3504 -3506 3507 0
3504 -3507 0
3506 -3507 0
-3223 -3507 3508 0
3223 -3508 0
3507 -3508 0
-3498 -3508 3509 0
3498 -3509 0
3508 -3509 0
3509 3510 0
-3509 -3510 0
-3075 -3308 3511 0
3075 -3511 0
3308 -3511 0
-3049 -3071 3512 0
3049 -3512 0
3071 -3512 0
-3511 -3512 3513 0
3511 -3513 0
3512 -3513 0
3513 3514 0
-3513 -3514 0
-3039 -3091 3515 0
3039 -3515 0
3091 -3515 0
3515 3516 0
-3515 -3516 0
-3514 -3516 3517 0
3514 -3517 0
3516 -3517 0
-3047 -3061 3518 0
3047 -3518 0
3061 -3518 0
3518 3519 0
-3518 -3519 0
-3064 -3075 3520 0
3064 -3520 0
3075 -3520 0
3520 3521 0
-3520 -3521 0
-3519 -3521 3522 0
3519 -3522 0
3521 -3522 0
3522 3523 0
-3522 -3523 0
-3309 -3523 3524 0
3309 -3524 0
3523 -3524 0
3524 3525 0
-3524 -3525 0
-3506 -3525 3526 0
3506 -3526 0
3525 -3526 0
-3147 -3406 3527 0
3147 -3527 0
3406 -3527 0
-3073 -3527 3528 0
3073 -3528 0
3527 -3528 0
3528 3529 0
-3528 -3529 0
-3223 -3529 3530 0
3223 -3530 0
3529 -3530 0
-3526 -3530 3531 0
3526 -3531 0
3530 -3531 0
-3517 -3531 3532 0
3517 -3532 0
3531 -3532 0
3532 3533 0
-3532 -3533 0
-3041 -3112 3534 0
3041 -3534 0
3112 -3534 0
3534 3535 0
-3534 -3535 0
-3079 -3114 3536 0
3079 -3536 0
3114 -3536 0
-3052 -3536 3537 0
3052 -3537 0
3536 -3537 0
3537 3538 0
-3537 -3538 0
-3535 -3538 3539 0
3535 -3539 0
3538 -3539 0
3539 3540 0
-3539 -3540 0
-3218 -3540 3541 0
3218 -3541 0
3540 -3541 0
3541 3542 0
-3541 -3542 0
-3278 -3392 3543 0
3278 -3543 0
3392 -3543 0
3543 3544 0
-3543 -3544 0
-3068 -3544 3545 0
3068 -3545 0
3544 -3545 0
3545 3546 0
-3545 -3546 0
-3432 -3546 3547 0
3432 -3547 0
3546 -3547 0
-3061 -3338 3548 0
3061 -3548 0
3338 -3548 0
-3399 -3548 3549 0
3399 -3549 0
3548 -3549 0
3549 3550 0
-3549 -3550 0
-3126 -3329 3551 0
3126 -3551 0
3329 -3551 0
-3420 -3551 3552 0
3420 -3552 0
3551 -3552 0
-3071 -3552 3553 0
3071 -3553 0
3552 -3553 0
3553 3554 0
-3553 -3554 0
-3550 -3554 3555 0
3550 -3555 0
3554 -3555 0
-3411 -3469 3556 0
3411 -3556 0
3469 -3556 0
-3555 -3556 3557 0
3555 -3557 0
3556 -3557 0
-3547 -3557 3558 0
3547 -3558 0
3557 -3558 0
-3542 -3558 3559 0
3542 -3559 0
3558 -3559 0
3559 3560 0
-3559 -3560 0
-3073 -3061 3561 0
3073 -3561 0
3061 -3561 0
-3062 -3057 3562 0
3062 -3562 0
3057 -3562 0
-3561 -3562 3563 0
3561 -3563 0
3562 -3563 0
3563 3564 0
-3563 -3564 0
-3068 -3075 3565 0
3068 -3565 0
3075 -3565 0
-3234 -3565 3566 0
3234 -3566 0
3565 -3566 0
-3055 -3566 3567 0
3055 -3567 0
3566 -3567 0
3567 3568 0
-3567 -3568 0
-3564 -3568 3569 0
3564 -3569 0
3568 -3569 0
3569 3570 0
-3569 -3570 0
-3047 -3570 3571 0
3047 -3571 0
3570 -3571 0
-3407 -3571 3572 0
3407 -3572 0
3571 -3572 0
-3112 -3572 3573 0
3112 -3573 0
3572 -3573 0
3573 3574 0
-3573 -3574 0
-3199 -3279 3575 0
3199 -3575 0
3279 -3575 0
3575 3576 0
-3575 -3576 0
-3574 -3576 3577 0
3574 -3577 0
3576 -3577 0
-3075 -3551 3578 0
3075 -3578 0
3551 -3578 0
3578 3579 0
-3578 -3579 0
-3305 -3579 3580 0
3305 -3580 0
3579 -3580 0
3580 3581 0
-3580 -3581 0
-3311 -3581 3582 0
3311 -3582 0
3581 -3582 0
3582 3583 0
-3582 -3583 0
-3577 -3583 3584 0
3577 -3584 0
3583 -3584 0
3584 3585 0
-3584 -3585 0
-3070 -3085 3586 0
3070 -3586 0
3085 -3586 0
-3071 -3423 3587 0
3071 -3587 0
3423 -3587 0
3587 3588 0
-3587 -3588 0
-3342 -3548 3589 0
3342 -3589 0
3548 -3589 0
3589 3590 0
-3589 -3590 0
-3411 -3590 3591 0
3411 -3591 0
3590 -3591 0
-3053 -3097 3592 0
3053 -3592 0
3097 -3592 0
3592 3593 0
-3592 -3593 0
-3479 -3593 3594 0
3479 -3594 0
3593 -3594 0
3594 3595 0
-3594 -3595 0
-3050 -3595 3596 0
3050 -3596 0
3595 -3596 0
3596 3597 0
-3596 -3597 0
-3542 -3597 3598 0
3542 -3598 0
3597 -3598 0
-3591 -3598 3599 0
3591 -3599 0
3598 -3599 0
-3588 -3599 3600 0
3588 -3600 0
3599 -3600 0
3600 3601 0
-3600 -3601 0
-3050 -3376 3602 0
3050 -3602 0
3376 -3602 0
3602 3603 0
-3602 -3603 0
-3574 -3603 3604 0
3574 -3604 0
3603 -3604 0
-3072 -3423 3605 0
3072 -3605 0
3423 -3605 0
-3057 -3605 3606 0
3057 -3606 0
3605 -3606 0
3606 3607 0
-3606 -3607 0
-3576 -3607 3608 0
3576 -3608 0
3607 -3608 0
-3604 -3608 3609 0
3604 -3609 0
3608 -3609 0
3609 3610 0
-3609 -3610 0
-3070 -3058 3611 0
3070 -3611 0
3058 -3611 0
-3070 -3072 3612 0
3070 -3612 0
3072 -3612 0
-3042 -3079 3613 0
3042 -3613 0
3079 -3613 0
-3505 -3613 3614 0
3505 -3614 0
3613 -3614 0
-3332 -3565 3615 0
3332 -3615 0
3565 -3615 0
3615 3616 0
-3615 -3616 0
-3576 -3616 3617 0
3576 -3617 0
3616 -3617 0
3617 3618 0
-3617 -3618 0
-3619 3618 0
3619 -3618 0
-3620 3614 0
3620 -3614 0
-3621 3612 0
3621 -3612 0
-3622 3611 0
3622 -3611 0
-3623 3610 0
3623 -3610 0
-3624 3601 0
3624 -3601 0
-3625 3586 0
3625 -3586 0
-3626 3585 0
3626 -3585 0
-3627 3560 0
3627 -3560 0
-3628 3533 0
3628 -3533 0
-3629 3510 0
3629 -3510 0
-3630 3488 0
3630 -3488 0
-3631 3486 0
3631 -3486 0
-3632 3473 0
3632 -3473 0
-3633 3097 0
3633 -3097 0
-3634 3457 0
3634 -3457 0
-3635 3450 0
3635 -3450 0
-3636 3107 0
3636 -3107 0
-3637 3440 0
3637 -3440 0
-3638 3438 0
3638 -3438 0
-3639 3418 0
3639 -3418 0
-3640 3390 0
3640 -3390 0
-3641 3372 0
3641 -3372 0
-3642 3354 0
3642 -3354 0
-3643 3327 0
3643 -3327 0
-3644 3265 0
3644 -3265 0
-3645 3233 0
3645 -3233 0
-3646 3208 0
3646 -3208 0
-3647 3161 0
3647 -3161 0
3649 3665 0
-3649 -3665 0
3650 3666 0
-3650 -3666 0
3651 3667 0
-3651 -3667 0
3652 3668 0
-3652 -3668 0
3653 3669 0
-3653 -3669 0
3655 3670 0
-3655 -3670 0
3657 3671 0
-3657 -3671 0
3658 3672 0
-3658 -3672 0
3659 3673 0
-3659 -3673 0
3660 3674 0
-3660 -3674 0
3661 3675 0
-3661 -3675 0
3662 3676 0
-3662 -3676 0
3663 3677 0
-3663 -3677 0
3664 3678 0
-3664 -3678 0
3647 3679 0
-3647 -3679 0
3646 3680 0
-3646 -3680 0
3645 3681 0
-3645 -3681 0
3644 3682 0
-3644 -3682 0
3643 3683 0
-3643 -3683 0
3642 3684 0
-3642 -3684 0
-3647 -3681 3685 0
3647 -3685 0
3681 -3685 0
-3682 -3685 3686 0
3682 -3686 0
3685 -3686 0
-3674 -3675 3687 0
3674 -3687 0
3675 -3687 0
3687 3688 0
-3687 -3688 0
-3680 -3688 3689 0
3680 -3689 0
3688 -3689 0
-3686 -3689 3690 0
3686 -3690 0
3689 -3690 0
-3642 -3690 3691 0
3642 -3691 0
3690 -3691 0
3691 3692 0
-3691 -3692 0
-3680 -3686 3693 0
3680 -3693 0
3686 -3693 0
-3667 -3693 3694 0
3667 -3694 0
3693 -3694 0
-3665 -3694 3695 0
3665 -3695 0
3694 -3695 0
3695 3696 0
-3695 -3696 0
-3692 -3696 3697 0
3692 -3697 0
3696 -3697 0
-3683 -3686 3698 0
3683 -3698 0
3686 -3698 0
-3646 -3684 3699 0
3646 -3699 0
3684 -3699 0
-3698 -3699 3700 0
3698 -3700 0
3699 -3700 0
3700 3701 0
-3700 -3701 0
-3676 -3677 3702 0
3676 -3702 0
3677 -3702 0
3702 3703 0
-3702 -3703 0
-3654 -3681 3704 0
3654 -3704 0
3681 -3704 0
3704 3705 0
-3704 -3705 0
-3679 -3680 3706 0
3679 -3706 0
3680 -3706 0
-3644 -3684 3707 0
3644 -3707 0
3684 -3707 0
-3706 -3707 3708 0
3706 -3708 0
3707 -3708 0
-3683 -3708 3709 0
3683 -3709 0
3708 -3709 0
-3704 -3709 3710 0
3704 -3710 0
3709 -3710 0
-3703 -3710 3711 0
3703 -3711 0
3710 -3711 0
3711 3712 0
-3711 -3712 0
-3701 -3712 3713 0
3701 -3713 0
3712 -3713 0
-3697 -3713 3714 0
3697 -3714 0
3713 -3714 0
-3683 -3684 3715 0
3683 -3715 0
3684 -3715 0
3715 3716 0
-3715 -3716 0
-3643 -3642 3717 0
3643 -3717 0
3642 -3717 0
3717 3718 0
-3717 -3718 0
-3716 -3718 3719 0
3716 -3719 0
3718 -3719 0
-3644 -3685 3720 0
3644 -3720 0
3685 -3720 0
-3719 -3720 3721 0
3719 -3721 0
3720 -3721 0
3721 3722 0
-3721 -3722 0
-3662 -3698 3723 0
3662 -3723 0
3698 -3723 0
3723 3724 0
-3723 -3724 0
-3684 -3723 3725 0
3684 -3725 0
3723 -3725 0
3725 3726 0
-3725 -3726 0
-3722 -3726 3727 0
3722 -3727 0
3726 -3727 0
-3651 -3652 3728 0
3651 -3728 0
3652 -3728 0
3728 3729 0
-3728 -3729 0
-3678 -3698 3730 0
3678 -3730 0
3698 -3730 0
3730 3731 0
-3730 -3731 0
-3683 -3642 3732 0
3683 -3732 0
3642 -3732 0
-3685 -3732 3733 0
3685 -3733 0
3732 -3733 0
3733 3734 0
-3733 -3734 0
-3731 -3734 3735 0
3731 -3735 0
3734 -3735 0
3735 3736 0
-3735 -3736 0
-3729 -3736 3737 0
3729 -3737 0
3736 -3737 0
3737 3738 0
-3737 -3738 0
-3662 -3690 3739 0
3662 -3739 0
3690 -3739 0
3739 3740 0
-3739 -3740 0
-3738 -3740 3741 0
3738 -3741 0
3740 -3741 0
-3676 -3680 3742 0
3676 -3742 0
3680 -3742 0
3742 3743 0
-3742 -3743 0
-3719 -3742 3744 0
3719 -3744 0
3742 -3744 0
-3685 -3744 3745 0
3685 -3745 0
3744 -3745 0
3745 3746 0
-3745 -3746 0
-3649 -3650 3747 0
3649 -3747 0
3650 -3747 0
3747 3748 0
-3747 -3748 0
-3684 -3686 3749 0
3684 -3749 0
3686 -3749 0
-3664 -3749 3750 0
3664 -3750 0
3749 -3750 0
3750 3751 0
-3750 -3751 0
-3643 -3684 3752 0
3643 -3752 0
3684 -3752 0
-3681 -3752 3753 0
3681 -3753 0
3752 -3753 0
-3647 -3753 3754 0
3647 -3754 0
3753 -3754 0
3754 3755 0
-3754 -3755 0
-3751 -3755 3756 0
3751 -3756 0
3755 -3756 0
3756 3757 0
-3756 -3757 0
-3748 -3757 3758 0
3748 -3758 0
3757 -3758 0
3758 3759 0
-3758 -3759 0
-3746 -3759 3760 0
3746 -3760 0
3759 -3760 0
-3741 -3760 3761 0
3741 -3761 0
3760 -3761 0
-3727 -3761 3762 0
3727 -3762 0
3761 -3762 0
-3714 -3762 3763 0
3714 -3763 0
3762 -3763 0
3763 3764 0
-3763 -3764 0
-3666 -3752 3765 0
3666 -3765 0
3752 -3765 0
3765 3766 0
-3765 -3766 0
-3668 -3732 3767 0
3668 -3767 0
3732 -3767 0
3767 3768 0
-3767 -3768 0
-3766 -3768 3769 0
3766 -3769 0
3768 -3769 0
3769 3770 0
-3769 -3770 0
-3685 -3770 3771 0
3685 -3771 0
3770 -3771 0
3771 3772 0
-3771 -3772 0
-3722 -3772 3773 0
3722 -3773 0
3772 -3773 0
3773 3774 0
-3773 -3774 0
-3646 -3774 3775 0
3646 -3775 0
3774 -3775 0
3775 3776 0
-3775 -3776 0
-3651 -3668 3777 0
3651 -3777 0
3668 -3777 0
3777 3778 0
-3777 -3778 0
-3657 -3778 3779 0
3657 -3779 0
3778 -3779 0
3779 3780 0
-3779 -3780 0
-3680 -3687 3781 0
3680 -3781 0
3687 -3781 0
-3723 -3781 3782 0
3723 -3782 0
3781 -3782 0
-3684 -3782 3783 0
3684 -3783 0
3782 -3783 0
-3650 -3783 3784 0
3650 -3784 0
3783 -3784 0
3784 3785 0
-3784 -3785 0
-3780 -3784 3786 0
3780 -3786 0
3784 -3786 0
-3664 -3786 3787 0
3664 -3787 0
3786 -3787 0
3787 3788 0
-3787 -3788 0
-3776 -3788 3789 0
3776 -3789 0
3788 -3789 0
-3669 -3700 3790 0
3669 -3790 0
3700 -3790 0
3790 3791 0
-3790 -3791 0
-3649 -3666 3792 0
3649 -3792 0
3666 -3792 0
3792 3793 0
-3792 -3793 0
-3658 -3793 3794 0
3658 -3794 0
3793 -3794 0
3794 3795 0
-3794 -3795 0
-3783 -3795 3796 0
3783 -3796 0
3795 -3796 0
-3677 -3678 3797 0
3677 -3797 0
3678 -3797 0
3797 3798 0
-3797 -3798 0
-3663 -3664 3799 0
3663 -3799 0
3664 -3799 0
3799 3800 0
-3799 -3800 0
-3798 -3800 3801 0
3798 -3801 0
3800 -3801 0
3801 3802 0
-3801 -3802 0
-3652 -3801 3803 0
3652 -3803 0
3801 -3803 0
3803 3804 0
-3803 -3804 0
-3779 -3804 3805 0
3779 -3805 0
3804 -3805 0
3805 3806 0
-3805 -3806 0
-3796 -3806 3807 0
3796 -3807 0
3806 -3807 0
3807 3808 0
-3807 -3808 0
-3791 -3808 3809 0
3791 -3809 0
3808 -3809 0
-3789 -3809 3810 0
3789 -3810 0
3809 -3810 0
3810 3811 0
-3810 -3811 0
-3684 -3687 3812 0
3684 -3812 0
3687 -3812 0
-3728 -3812 3813 0
3728 -3813 0
3812 -3813 0
3813 3814 0
-3813 -3814 0
-3681 -3814 3815 0
3681 -3815 0
3814 -3815 0
3815 3816 0
-3815 -3816 0
-3683 -3816 3817 0
3683 -3817 0
3816 -3817 0
-3706 -3817 3818 0
3706 -3818 0
3817 -3818 0
-3682 -3818 3819 0
3682 -3819 0
3818 -3819 0
3819 3820 0
-3819 -3820 0
-3645 -3706 3821 0
3645 -3821 0
3706 -3821 0
-3732 -3821 3822 0
3732 -3822 0
3821 -3822 0
3822 3823 0
-3822 -3823 0
-3682 -3821 3824 0
3682 -3824 0
3821 -3824 0
-3642 -3824 3825 0
3642 -3825 0
3824 -3825 0
3825 3826 0
-3825 -3826 0
-3670 -3825 3827 0
3670 -3827 0
3825 -3827 0
3827 3828 0
-3827 -3828 0
-3823 -3828 3829 0
3823 -3829 0
3828 -3829 0
-3643 -3708 3830 0
3643 -3830 0
3708 -3830 0
3830 3831 0
-3830 -3831 0
-3645 -3830 3832 0
3645 -3832 0
3830 -3832 0
3832 3833 0
-3832 -3833 0
-3829 -3833 3834 0
3829 -3834 0
3833 -3834 0
-3820 -3834 3835 0
3820 -3835 0
3834 -3835 0
3835 3836 0
-3835 -3836 0
-3674 -3662 3837 0
3674 -3837 0
3662 -3837 0
-3675 -3837 3838 0
3675 -3838 0
3837 -3838 0
3838 3839 0
-3838 -3839 0
-3680 -3839 3840 0
3680 -3840 0
3839 -3840 0
3840 3841 0
-3840 -3841 0
-3643 -3841 3842 0
3643 -3842 0
3841 -3842 0
-3749 -3842 3843 0
3749 -3843 0
3842 -3843 0
-3792 -3843 3844 0
3792 -3844 0
3843 -3844 0
3844 3845 0
-3844 -3845 0
-3642 -3841 3846 0
3642 -3846 0
3841 -3846 0
-3698 -3846 3847 0
3698 -3847 0
3846 -3847 0
-3777 -3847 3848 0
3777 -3848 0
3847 -3848 0
3848 3849 0
-3848 -3849 0
-3845 -3849 3850 0
3845 -3850 0
3849 -3850 0
-3680 -3683 3851 0
3680 -3851 0
3683 -3851 0
-3681 -3682 3852 0
3681 -3852 0
3682 -3852 0
-3851 -3852 3853 0
3851 -3853 0
3852 -3853 0
-3679 -3813 3854 0
3679 -3854 0
3813 -3854 0
-3853 -3854 3855 0
3853 -3855 0
3854 -3855 0
3855 3856 0
-3855 -3856 0
-3708 -3705 3857 0
3708 -3857 0
3705 -3857 0
3857 3858 0
-3857 -3858 0
-3856 -3858 3859 0
3856 -3859 0
3858 -3859 0
-3643 -3825 3860 0
3643 -3860 0
3825 -3860 0
3860 3861 0
-3860 -3861 0
-3669 -3721 3862 0
3669 -3862 0
3721 -3862 0
3862 3863 0
-3862 -3863 0
-3861 -3863 3864 0
3861 -3864 0
3863 -3864 0
-3859 -3864 3865 0
3859 -3865 0
3864 -3865 0
-3850 -3865 3866 0
3850 -3866 0
3865 -3866 0
-3831 -3866 3867 0
3831 -3867 0
3866 -3867 0
3867 3868 0
-3867 -3868 0
-3652 -3657 3869 0
3652 -3869 0
3657 -3869 0
-3662 -3749 3870 0
3662 -3870 0
3749 -3870 0
3870 3871 0
-3870 -3871 0
-3649 -3870 3872 0
3649 -3872 0
3870 -3872 0
-3781 -3872 3873 0
3781 -3873 0
3872 -3873 0
-3683 -3873 3874 0
3683 -3874 0
3873 -3874 0
3874 3875 0
-3874 -3875 0
-3785 -3875 3876 0
3785 -3876 0
3875 -3876 0
3876 3877 0
-3876 -3877 0
-3869 -3877 3878 0
3869 -3878 0
3877 -3878 0
3878 3879 0
-3878 -3879 0
-3672 -3783 3880 0
3672 -3880 0
3783 -3880 0
3880 3881 0
-3880 -3881 0
-3869 -3880 3882 0
3869 -3882 0
3880 -3882 0
3882 3883 0
-3882 -3883 0
-3879 -3883 3884 0
3879 -3884 0
3883 -3884 0
-3669 -3676 3885 0
3669 -3885 0
3676 -3885 0
3885 3886 0
-3885 -3886 0
-3662 -3688 3887 0
3662 -3887 0
3688 -3887 0
3887 3888 0
-3887 -3888 0
-3886 -3888 3889 0
3886 -3889 0
3888 -3889 0
3889 3890 0
-3889 -3890 0
-3680 -3890 3891 0
3680 -3891 0
3890 -3891 0
3891 3892 0
-3891 -3892 0
-3682 -3892 3893 0
3682 -3893 0
3892 -3893 0
-3743 -3748 3894 0
3743 -3894 0
3748 -3894 0
3894 3895 0
-3894 -3895 0
-3893 -3895 3896 0
3893 -3896 0
3895 -3896 0
3896 3897 0
-3896 -3897 0
-3754 -3897 3898 0
3754 -3898 0
3897 -3898 0
3898 3899 0
-3898 -3899 0
-3667 -3652 3900 0
3667 -3900 0
3652 -3900 0
-3847 -3900 3901 0
3847 -3901 0
3900 -3901 0
3901 3902 0
-3901 -3902 0
-3899 -3902 3903 0
3899 -3903 0
3902 -3903 0
-3884 -3903 3904 0
3884 -3904 0
3903 -3904 0
-3678 -3777 3905 0
3678 -3905 0
3777 -3905 0
3905 3906 0
-3905 -3906 0
-3664 -3792 3907 0
3664 -3907 0
3792 -3907 0
3907 3908 0
-3907 -3908 0
-3906 -3908 3909 0
3906 -3909 0
3908 -3909 0
3909 3910 0
-3909 -3910 0
-3676 -3749 3911 0
3676 -3911 0
3749 -3911 0
-3675 -3911 3912 0
3675 -3912 0
3911 -3912 0
-3660 -3912 3913 0
3660 -3913 0
3912 -3913 0
-3851 -3913 3914 0
3851 -3914 0
3913 -3914 0
-3910 -3914 3915 0
3910 -3915 0
3914 -3915 0
3915 3916 0
-3915 -3916 0
-3669 -3832 3917 0
3669 -3917 0
3832 -3917 0
3917 3918 0
-3917 -3918 0
-3916 -3918 3919 0
3916 -3919 0
3918 -3919 0
-3643 -3691 3920 0
3643 -3920 0
3691 -3920 0
3920 3921 0
-3920 -3921 0
-3680 -3753 3922 0
3680 -3922 0
3753 -3922 0
-3644 -3922 3923 0
3644 -3923 0
3922 -3923 0
-3748 -3923 3924 0
3748 -3924 0
3923 -3924 0
3924 3925 0
-3924 -3925 0
-3921 -3925 3926 0
3921 -3926 0
3925 -3926 0
-3919 -3926 3927 0
3919 -3927 0
3926 -3927 0
-3826 -3927 3928 0
3826 -3928 0
3927 -3928 0
-3904 -3928 3929 0
3904 -3929 0
3928 -3929 0
3929 3930 0
-3929 -3930 0
-3667 -3668 3931 0
3667 -3931 0
3668 -3931 0
3931 3932 0
-3931 -3932 0
-3657 -3931 3933 0
3657 -3933 0
3931 -3933 0
3933 3934 0
-3933 -3934 0
-3658 -3784 3935 0
3658 -3935 0
3784 -3935 0
-3934 -3935 3936 0
3934 -3936 0
3935 -3936 0
3936 3937 0
-3936 -3937 0
-3921 -3937 3938 0
3921 -3938 0
3937 -3938 0
-3851 -3911 3939 0
3851 -3939 0
3911 -3939 0
3939 3940 0
-3939 -3940 0
-3674 -3939 3941 0
3674 -3941 0
3939 -3941 0
-3910 -3941 3942 0
3910 -3942 0
3941 -3942 0
3942 3943 0
-3942 -3943 0
-3820 -3943 3944 0
3820 -3944 0
3943 -3944 0
-3665 -3650 3945 0
3665 -3945 0
3650 -3945 0
-3843 -3945 3946 0
3843 -3946 0
3945 -3946 0
3946 3947 0
-3946 -3947 0
-3729 -3743 3948 0
3729 -3948 0
3743 -3948 0
3948 3949 0
-3948 -3949 0
-3893 -3949 3950 0
3893 -3950 0
3949 -3950 0
3950 3951 0
-3950 -3951 0
-3733 -3951 3952 0
3733 -3952 0
3951 -3952 0
3952 3953 0
-3952 -3953 0
-3947 -3953 3954 0
3947 -3954 0
3953 -3954 0
-3944 -3954 3955 0
3944 -3955 0
3954 -3955 0
-3938 -3955 3956 0
3938 -3956 0
3955 -3956 0
3956 3957 0
-3956 -3957 0
-3720 -3752 3958 0
3720 -3958 0
3752 -3958 0
3958 3959 0
-3958 -3959 0
-3701 -3959 3960 0
3701 -3960 0
3959 -3960 0
-3676 -3732 3961 0
3676 -3961 0
3732 -3961 0
3961 3962 0
-3961 -3962 0
-3680 -3685 3963 0
3680 -3963 0
3685 -3963 0
-3961 -3963 3964 0
3961 -3964 0
3963 -3964 0
3964 3965 0
-3964 -3965 0
-3664 -3682 3966 0
3664 -3966 0
3682 -3966 0
-3964 -3966 3967 0
3964 -3967 0
3966 -3967 0
3967 3968 0
-3967 -3968 0
-3676 -3647 3969 0
3676 -3969 0
3647 -3969 0
-3922 -3969 3970 0
3922 -3970 0
3969 -3970 0
-3664 -3970 3971 0
3664 -3971 0
3970 -3971 0
3971 3972 0
-3971 -3972 0
-3968 -3972 3973 0
3968 -3973 0
3972 -3973 0
-3960 -3973 3974 0
3960 -3974 0
3973 -3974 0
3974 3975 0
-3974 -3975 0
-3720 -3732 3976 0
3720 -3976 0
3732 -3976 0
3976 3977 0
-3976 -3977 0
-3701 -3977 3978 0
3701 -3978 0
3977 -3978 0
-3682 -3970 3979 0
3682 -3979 0
3970 -3979 0
3979 3980 0
-3979 -3980 0
-3965 -3980 3981 0
3965 -3981 0
3980 -3981 0
3981 3982 0
-3981 -3982 0
-3678 -3982 3983 0
3678 -3983 0
3982 -3983 0
3983 3984 0
-3983 -3984 0
-3682 -3643 3985 0
3682 -3985 0
3643 -3985 0
3985 3986 0
-3985 -3986 0
-3684 -3986 3987 0
3684 -3987 0
3986 -3987 0
-3821 -3987 3988 0
3821 -3988 0
3987 -3988 0
3988 3989 0
-3988 -3989 0
-3984 -3989 3990 0
3984 -3990 0
3989 -3990 0
-3826 -3990 3991 0
3826 -3991 0
3990 -3991 0
-3978 -3991 3992 0
3978 -3992 0
3991 -3992 0
3992 3993 0
-3992 -3993 0
-3666 -3873 3994 0
3666 -3994 0
3873 -3994 0
3994 3995 0
-3994 -3995 0
-3780 -3994 3996 0
3780 -3996 0
3994 -3996 0
-3658 -3996 3997 0
3658 -3997 0
3996 -3997 0
3997 3998 0
-3997 -3998 0
-3845 -3998 3999 0
3845 -3999 0
3998 -3999 0
-3665 -3666 4000 0
3665 -4000 0
3666 -4000 0
4000 4001 0
-4000 -4001 0
-3748 -4001 4002 0
3748 -4002 0
4001 -4002 0
-3939 -4002 4003 0
3939 -4003 0
4002 -4003 0
-3660 -3661 4004 0
3660 -4004 0
3661 -4004 0
4004 4005 0
-4004 -4005 0
-3664 -4005 4006 0
3664 -4006 0
4005 -4006 0
-4003 -4006 4007 0
4003 -4007 0
4006 -4007 0
4007 4008 0
-4007 -4008 0
-3665 -3674 4009 0
3665 -4009 0
3674 -4009 0
-3675 -3693 4010 0
3675 -4010 0
3693 -4010 0
-3667 -4010 4011 0
3667 -4011 0
4010 -4011 0
-3717 -4011 4012 0
3717 -4012 0
4011 -4012 0
-4009 -4012 4013 0
4009 -4013 0
4012 -4013 0
4013 4014 0
-4013 -4014 0
-4008 -4014 4015 0
4008 -4015 0
4014 -4015 0
-3999 -4015 4016 0
3999 -4016 0
4015 -4016 0
-3747 -3830 4017 0
3747 -4017 0
3830 -4017 0
-3681 -4017 4018 0
3681 -4018 0
4017 -4018 0
4018 4019 0
-4018 -4019 0
-4016 -4019 4020 0
4016 -4020 0
4019 -4020 0
4020 4021 0
-4020 -4021 0
-3684 -3742 4022 0
3684 -4022 0
3742 -4022 0
-3730 -4022 4023 0
3730 -4023 0
4022 -4023 0
-3777 -4023 4024 0
3777 -4024 0
4023 -4024 0
4024 4025 0
-4024 -4025 0
-3900 -4023 4026 0
3900 -4026 0
4023 -4026 0
4026 4027 0
-4026 -4027 0
-4025 -4027 4028 0
4025 -4028 0
4027 -4028 0
4028 4029 0
-4028 -4029 0
-4005 -4029 4030 0
4005 -4030 0
4029 -4030 0
4030 4031 0
-4030 -4031 0
-4014 -4031 4032 0
4014 -4032 0
4031 -4032 0
-3782 -3795 4033 0
3782 -4033 0
3795 -4033 0
-3777 -4033 4034 0
3777 -4034 0
4033 -4034 0
4034 4035 0
-4034 -4035 0
-3657 -4034 4036 0
3657 -4036 0
4034 -4036 0
4036 4037 0
-4036 -4037 0
-3856 -4037 4038 0
3856 -4038 0
4037 -4038 0
-3849 -4038 4039 0
3849 -4039 0
4038 -4039 0
-4032 -4039 4040 0
4032 -4040 0
4039 -4040 0
4040 4041 0
-4040 -4041 0
-3826 -3989 4042 0
3826 -4042 0
3989 -4042 0
4042 4043 0
-4042 -4043 0
-3647 -3923 4044 0
3647 -4044 0
3923 -4044 0
4044 4045 0
-4044 -4045 0
-3664 -3700 4046 0
3664 -4046 0
3700 -4046 0
4046 4047 0
-4046 -4047 0
-4045 -4047 4048 0
4045 -4048 0
4047 -4048 0
-3678 -3970 4049 0
3678 -4049 0
3970 -4049 0
4049 4050 0
-4049 -4050 0
-3968 -4050 4051 0
3968 -4051 0
4050 -4051 0
-4048 -4051 4052 0
4048 -4052 0
4051 -4052 0
4052 4053 0
-4052 -4053 0
-3663 -3700 4054 0
3663 -4054 0
3700 -4054 0
4054 4055 0
-4054 -4055 0
-3680 -3721 4056 0
3680 -4056 0
3721 -4056 0
4056 4057 0
-4056 -4057 0
-3746 -4057 4058 0
3746 -4058 0
4057 -4058 0
-4055 -4058 4059 0
4055 -4059 0
4058 -4059 0
4059 4060 0
-4059 -4060 0
-3662 -3710 4061 0
3662 -4061 0
3710 -4061 0
4061 4062 0
-4061 -4062 0
-3856 -4062 4063 0
3856 -4063 0
4062 -4063 0
-3649 -3765 4064 0
3649 -4064 0
3765 -4064 0
4064 4065 0
-4064 -4065 0
-3651 -3767 4066 0
3651 -4066 0
3767 -4066 0
4066 4067 0
-4066 -4067 0
-4065 -4067 4068 0
4065 -4068 0
4067 -4068 0
4068 4069 0
-4068 -4069 0
-4010 -4069 4070 0
4010 -4070 0
4069 -4070 0
-3837 -4070 4071 0
3837 -4071 0
4070 -4071 0
4071 4072 0
-4071 -4072 0
-3940 -4014 4073 0
3940 -4073 0
4014 -4073 0
-4072 -4073 4074 0
4072 -4074 0
4073 -4074 0
-4063 -4074 4075 0
4063 -4075 0
4074 -4075 0
4075 4076 0
-4075 -4076 0
-3644 -3719 4077 0
3644 -4077 0
3719 -4077 0
4077 4078 0
-4077 -4078 0
-3962 -4078 4079 0
3962 -4079 0
4078 -4079 0
4079 4080 0
-4079 -4080 0
-3963 -4080 4081 0
3963 -4081 0
4080 -4081 0
4081 4082 0
-4081 -4082 0
-3833 -4082 4083 0
3833 -4083 0
4082 -4083 0
-3683 -3824 4084 0
3683 -4084 0
3824 -4084 0
4084 4085 0
-4084 -4085 0
-3701 -4085 4086 0
3701 -4086 0
4085 -4086 0
-3826 -4086 4087 0
3826 -4087 0
4086 -4087 0
-4083 -4087 4088 0
4083 -4088 0
4087 -4088 0
4088 4089 0
-4088 -4089 0
-3701 -3980 4090 0
3701 -4090 0
3980 -4090 0
4090 4091 0
-4090 -4091 0
-3662 -3853 4092 0
3662 -4092 0
3853 -4092 0
-3684 -4092 4093 0
3684 -4093 0
4092 -4093 0
4093 4094 0
-4093 -4094 0
-3730 -4005 4095 0
3730 -4095 0
4005 -4095 0
4095 4096 0
-4095 -4096 0
-3724 -4096 4097 0
3724 -4097 0
4096 -4097 0
4097 4098 0
-4097 -4098 0
-3668 -4098 4099 0
3668 -4099 0
4098 -4099 0
4099 4100 0
-4099 -4100 0
-4094 -4100 4101 0
4094 -4101 0
4100 -4101 0
-3750 -4005 4102 0
3750 -4102 0
4005 -4102 0
4102 4103 0
-4102 -4103 0
-3871 -4103 4104 0
3871 -4104 0
4103 -4104 0
4104 4105 0
-4104 -4105 0
-3666 -4105 4106 0
3666 -4106 0
4105 -4106 0
4106 4107 0
-4106 -4107 0
-3715 -3706 4108 0
3715 -4108 0
3706 -4108 0
4108 4109 0
-4108 -4109 0
-4107 -4109 4110 0
4107 -4110 0
4109 -4110 0
-3826 -4110 4111 0
3826 -4111 0
4110 -4111 0
-4101 -4111 4112 0
4101 -4112 0
4111 -4112 0
4112 4113 0
-4112 -4113 0
-3678 -3911 4114 0
3678 -4114 0
3911 -4114 0
-3652 -3674 4115 0
3652 -4115 0
3674 -4115 0
-4114 -4115 4116 0
4114 -4116 0
4115 -4116 0
4116 4117 0
-4116 -4117 0
-3642 -3694 4118 0
3642 -4118 0
3694 -4118 0
4118 4119 0
-4118 -4119 0
-4117 -4119 4120 0
4117 -4120 0
4119 -4120 0
-3650 -3664 4121 0
3650 -4121 0
3664 -4121 0
4121 4122 0
-4121 -4122 0
-3667 -3678 4123 0
3667 -4123 0
3678 -4123 0
4123 4124 0
-4123 -4124 0
-4122 -4124 4125 0
4122 -4125 0
4124 -4125 0
4125 4126 0
-4125 -4126 0
-3912 -4126 4127 0
3912 -4127 0
4126 -4127 0
4127 4128 0
-4127 -4128 0
-4109 -4128 4129 0
4109 -4129 0
4128 -4129 0
-3750 -4009 4130 0
3750 -4130 0
4009 -4130 0
-3676 -4130 4131 0
3676 -4131 0
4130 -4131 0
4131 4132 0
-4131 -4132 0
-3826 -4132 4133 0
3826 -4133 0
4132 -4133 0
-4129 -4133 4134 0
4129 -4134 0
4133 -4134 0
-4120 -4134 4135 0
4120 -4135 0
4134 -4135 0
4135 4136 0
-4135 -4136 0
-3644 -3715 4137 0
3644 -4137 0
3715 -4137 0
4137 4138 0
-4137 -4138 0
-3682 -3717 4139 0
3682 -4139 0
3717 -4139 0
-3655 -4139 4140 0
3655 -4140 0
4139 -4140 0
4140 4141 0
-4140 -4141 0
-4138 -4141 4142 0
4138 -4142 0
4141 -4142 0
4142 4143 0
-4142 -4143 0
-3821 -4143 4144 0
3821 -4144 0
4143 -4144 0
4144 4145 0
-4144 -4145 0
-3881 -3995 4146 0
3881 -4146 0
3995 -4146 0
4146 4147 0
-4146 -4147 0
-3671 -4147 4148 0
3671 -4148 0
4147 -4148 0
4148 4149 0
-4148 -4149 0
-4035 -4149 4150 0
4035 -4150 0
4149 -4150 0
-3664 -3941 4151 0
3664 -4151 0
3941 -4151 0
-4002 -4151 4152 0
4002 -4152 0
4151 -4152 0
4152 4153 0
-4152 -4153 0
-3729 -3932 4154 0
3729 -4154 0
3932 -4154 0
-4023 -4154 4155 0
4023 -4155 0
4154 -4155 0
-3674 -4155 4156 0
3674 -4156 0
4155 -4156 0
4156 4157 0
-4156 -4157 0
-4153 -4157 4158 0
4153 -4158 0
4157 -4158 0
-4014 -4072 4159 0
4014 -4159 0
4072 -4159 0
-4158 -4159 4160 0
4158 -4160 0
4159 -4160 0
-4150 -4160 4161 0
4150 -4161 0
4160 -4161 0
-4145 -4161 4162 0
4145 -4162 0
4161 -4162 0
4162 4163 0
-4162 -4163 0
-3676 -3664 4164 0
3676 -4164 0
3664 -4164 0
-3665 -3660 4165 0
3665 -4165 0
3660 -4165 0
-4164 -4165 4166 0
4164 -4166 0
4165 -4166 0
4166 4167 0
-4166 -4167 0
-3671 -3678 4168 0
3671 -4168 0
3678 -4168 0
-3837 -4168 4169 0
3837 -4169 0
4168 -4169 0
-3658 -4169 4170 0
3658 -4170 0
4169 -4170 0
4170 4171 0
-4170 -4171 0
-4167 -4171 4172 0
4167 -4172 0
4171 -4172 0
4172 4173 0
-4172 -4173 0
-3650 -4173 4174 0
3650 -4174 0
4173 -4174 0
-4010 -4174 4175 0
4010 -4175 0
4174 -4175 0
-3715 -4175 4176 0
3715 -4176 0
4175 -4176 0
4176 4177 0
-4176 -4177 0
-3802 -3882 4178 0
3802 -4178 0
3882 -4178 0
4178 4179 0
-4178 -4179 0
-4177 -4179 4180 0
4177 -4180 0
4179 -4180 0
-3678 -4154 4181 0
3678 -4181 0
4154 -4181 0
4181 4182 0
-4181 -4182 0
-3908 -4182 4183 0
3908 -4183 0
4182 -4183 0
4183 4184 0
-4183 -4184 0
-3914 -4184 4185 0
3914 -4185 0
4184 -4185 0
4185 4186 0
-4185 -4186 0
-4180 -4186 4187 0
4180 -4187 0
4186 -4187 0
4187 4188 0
-4187 -4188 0
-3673 -3688 4189 0
3673 -4189 0
3688 -4189 0
-3674 -4026 4190 0
3674 -4190 0
4026 -4190 0
4190 4191 0
-4190 -4191 0
-3945 -4151 4192 0
3945 -4192 0
4151 -4192 0
4192 4193 0
-4192 -4193 0
-4014 -4193 4194 0
4014 -4194 0
4193 -4194 0
-3656 -3700 4195 0
3656 -4195 0
3700 -4195 0
4195 4196 0
-4195 -4196 0
-4082 -4196 4197 0
4082 -4197 0
4196 -4197 0
4197 4198 0
-4197 -4198 0
-3653 -4198 4199 0
3653 -4199 0
4198 -4199 0
4199 4200 0
-4199 -4200 0
-4145 -4200 4201 0
4145 -4201 0
4200 -4201 0
-4194 -4201 4202 0
4194 -4202 0
4201 -4202 0
-4191 -4202 4203 0
4191 -4203 0
4202 -4203 0
4203 4204 0
-4203 -4204 0
-3653 -3979 4205 0
3653 -4205 0
3979 -4205 0
4205 4206 0
-4205 -4206 0
-4177 -4206 4207 0
4177 -4207 0
4206 -4207 0
-3675 -4026 4208 0
3675 -4208 0
4026 -4208 0
-3660 -4208 4209 0
3660 -4209 0
4208 -4209 0
4209 4210 0
-4209 -4210 0
-4179 -4210 4211 0
4179 -4211 0
4210 -4211 0
-4207 -4211 4212 0
4207 -4212 0
4211 -4212 0
4212 4213 0
-4212 -4213 0
-3673 -3661 4214 0
3673 -4214 0
3661 -4214 0
-3673 -3675 4215 0
3673 -4215 0
3675 -4215 0
-3645 -3682 4216 0
3645 -4216 0
3682 -4216 0
-4108 -4216 4217 0
4108 -4217 0
4216 -4217 0
-3935 -4168 4218 0
3935 -4218 0
4168 -4218 0
4218 4219 0
-4218 -4219 0
-4179 -4219 4220 0
4179 -4220 0
4219 -4220 0
4220 4221 0
-4220 -4221 0
-4222 4221 0
4222 -4221 0
-4223 4217 0
4223 -4217 0
-4224 4215 0
4224 -4215 0
-4225 4214 0
4225 -4214 0
-4226 4213 0
4226 -4213 0
-4227 4204 0
4227 -4204 0
-4228 4189 0
4228 -4189 0
-4229 4188 0
4229 -4188 0
-4230 4163 0
4230 -4163 0
-4231 4136 0
4231 -4136 0
-4232 4113 0
4232 -4113 0
-4233 4091 0
4233 -4091 0
-4234 4089 0
4234 -4089 0
-4235 4076 0
4235 -4076 0
-4236 3700 0
4236 -3700 0
-4237 4060 0
4237 -4060 0
-4238 4053 0
4238 -4053 0
-4239 3710 0
4239 -3710 0
-4240 4043 0
4240 -4043 0
-4241 4041 0
4241 -4041 0
-4242 4021 0
4242 -4021 0
-4243 3993 0
4243 -3993 0
-4244 3975 0
4244 -3975 0
-4245 3957 0
4245 -3957 0
-4246 3930 0
4246 -3930 0
-4247 3868 0
4247 -3868 0
-4248 3836 0
4248 -3836 0
-4249 3811 0
4249 -3811 0
-4250 3764 0
4250 -3764 0
4252 4268 0
-4252 -4268 0
4253 4269 0
-4253 -4269 0
4254 4270 0
-4254 -4270 0
4255 4271 0
-4255 -4271 0
4256 4272 0
-4256 -4272 0
4258 4273 0
-4258 -4273 0
4260 4274 0
-4260 -4274 0
4261 4275 0
-4261 -4275 0
4262 4276 0
-4262 -4276 0
4263 4277 0
-4263 -4277 0
4264 4278 0
-4264 -4278 0
4265 4279 0
-4265 -4279 0
4266 4280 0
-4266 -4280 0
4267 4281 0
-4267 -4281 0
4250 4282 0
-4250 -4282 0
4249 4283 0
-4249 -4283 0
4248 4284 0
-4248 -4284 0
4247 4285 0
-4247 -4285 0
4246 4286 0
-4246 -4286 0
4245 4287 0
-4245 -4287 0
-4250 -4284 4288 0
4250 -4288 0
4284 -4288 0
-4285 -4288 4289 0
4285 -4289 0
4288 -4289 0
-4277 -4278 4290 0
4277 -4290 0
4278 -4290 0
4290 4291 0
-4290 -4291 0
-4283 -4291 4292 0
4283 -4292 0
4291 -4292 0
-4289 -4292 4293 0
4289 -4293 0
4292 -4293 0
-4245 -4293 4294 0
4245 -4294 0
4293 -4294 0
4294 4295 0
-4294 -4295 0
-4283 -4289 4296 0
4283 -4296 0
4289 -4296 0
-4270 -4296 4297 0
4270 -4297 0
4296 -4297 0
-4268 -4297 4298 0
4268 -4298 0
4297 -4298 0
4298 4299 0
-4298 -4299 0
-4295 -4299 4300 0
4295 -4300 0
4299 -4300 0
-4286 -4289 4301 0
4286 -4301 0
4289 -4301 0
-4249 -4287 4302 0
4249 -4302 0
4287 -4302 0
-4301 -4302 4303 0
4301 -4303 0
4302 -4303 0
4303 4304 0
-4303 -4304 0
-4279 -4280 4305 0
4279 -4305 0
4280 -4305 0
4305 4306 0
-4305 -4306 0
-4257 -4284 4307 0
4257 -4307 0
4284 -4307 0
4307 4308 0
-4307 -4308 0
-4282 -4283 4309 0
4282 -4309 0
4283 -4309 0
-4247 -4287 4310 0
4247 -4310 0
4287 -4310 0
-4309 -4310 4311 0
4309 -4311 0
4310 -4311 0
-4286 -4311 4312 0
4286 -4312 0
4311 -4312 0
-4307 -4312 4313 0
4307 -4313 0
4312 -4313 0
-4306 -4313 4314 0
4306 -4314 0
4313 -4314 0
4314 4315 0
-4314 -4315 0
-4304 -4315 4316 0
4304 -4316 0
4315 -4316 0
-4300 -4316 4317 0
4300 -4317 0
4316 -4317 0
-4286 -4287 4318 0
4286 -4318 0
4287 -4318 0
4318 4319 0
-4318 -4319 0
-4246 -4245 4320 0
4246 -4320 0
4245 -4320 0
4320 4321 0
-4320 -4321 0
-4319 -4321 4322 0
4319 -4322 0
4321 -4322 0
-4247 -4288 4323 0
4247 -4323 0
4288 -4323 0
-4322 -4323 4324 0
4322 -4324 0
4323 -4324 0
4324 4325 0
-4324 -4325 0
-4265 -4301 4326 0
4265 -4326 0
4301 -4326 0
4326 4327 0
-4326 -4327 0
-4287 -4326 4328 0
4287 -4328 0
4326 -4328 0
4328 4329 0
-4328 -4329 0
-4325 -4329 4330 0
4325 -4330 0
4329 -4330 0
-4254 -4255 4331 0
4254 -4331 0
4255 -4331 0
4331 4332 0
-4331 -4332 0
-4281 -4301 4333 0
4281 -4333 0
4301 -4333 0
4333 4334 0
-4333 -4334 0
-4286 -4245 4335 0
4286 -4335 0
4245 -4335 0
-4288 -4335 4336 0
4288 -4336 0
4335 -4336 0
4336 4337 0
-4336 -4337 0
-4334 -4337 4338 0
4334 -4338 0
4337 -4338 0
4338 4339 0
-4338 -4339 0
-4332 -4339 4340 0
4332 -4340 0
4339 -4340 0
4340 4341 0
-4340 -4341 0
-4265 -4293 4342 0
4265 -4342 0
4293 -4342 0
4342 4343 0
-4342 -4343 0
-4341 -4343 4344 0
4341 -4344 0
4343 -4344 0
-4279 -4283 4345 0
4279 -4345 0
4283 -4345 0
4345 4346 0
-4345 -4346 0
-4322 -4345 4347 0
4322 -4347 0
4345 -4347 0
-4288 -4347 4348 0
4288 -4348 0
4347 -4348 0
4348 4349 0
-4348 -4349 0
-4252 -4253 4350 0
4252 -4350 0
4253 -4350 0
4350 4351 0
-4350 -4351 0
-4287 -4289 4352 0
4287 -4352 0
4289 -4352 0
-4267 -4352 4353 0
4267 -4353 0
4352 -4353 0
4353 4354 0
-4353 -4354 0
-4246 -4287 4355 0
4246 -4355 0
4287 -4355 0
-4284 -4355 4356 0
4284 -4356 0
4355 -4356 0
-4250 -4356 4357 0
4250 -4357 0
4356 -4357 0
4357 4358 0
-4357 -4358 0
-4354 -4358 4359 0
4354 -4359 0
4358 -4359 0
4359 4360 0
-4359 -4360 0
-4351 -4360 4361 0
4351 -4361 0
4360 -4361 0
4361 4362 0
-4361 -4362 0
-4349 -4362 4363 0
4349 -4363 0
4362 -4363 0
-4344 -4363 4364 0
4344 -4364 0
4363 -4364 0
-4330 -4364 4365 0
4330 -4365 0
4364 -4365 0
-4317 -4365 4366 0
4317 -4366 0
4365 -4366 0
4366 4367 0
-4366 -4367 0
-4269 -4355 4368 0
4269 -4368 0
4355 -4368 0
4368 4369 0
-4368 -4369 0
-4271 -4335 4370 0
4271 -4370 0
4335 -4370 0
4370 4371 0
-4370 -4371 0
-4369 -4371 4372 0
4369 -4372 0
4371 -4372 0
4372 4373 0
-4372 -4373 0
-4288 -4373 4374 0
4288 -4374 0
4373 -4374 0
4374 4375 0
-4374 -4375 0
-4325 -4375 4376 0
4325 -4376 0
4375 -4376 0
4376 4377 0
-4376 -4377 0
-4249 -4377 4378 0
4249 -4378 0
4377 -4378 0
4378 4379 0
-4378 -4379 0
-4254 -4271 4380 0
4254 -4380 0
4271 -4380 0
4380 4381 0
-4380 -4381 0
-4260 -4381 4382 0
4260 -4382 0
4381 -4382 0
4382 4383 0
-4382 -4383 0
-4283 -4290 4384 0
4283 -4384 0
4290 -4384 0
-4326 -4384 4385 0
4326 -4385 0
4384 -4385 0
-4287 -4385 4386 0
4287 -4386 0
4385 -4386 0
-4253 -4386 4387 0
4253 -4387 0
4386 -4387 0
4387 4388 0
-4387 -4388 0
-4383 -4387 4389 0
4383 -4389 0
4387 -4389 0
-4267 -4389 4390 0
4267 -4390 0
4389 -4390 0
4390 4391 0
-4390 -4391 0
-4379 -4391 4392 0
4379 -4392 0
4391 -4392 0
-4272 -4303 4393 0
4272 -4393 0
4303 -4393 0
4393 4394 0
-4393 -4394 0
-4252 -4269 4395 0
4252 -4395 0
4269 -4395 0
4395 4396 0
-4395 -4396 0
-4261 -4396 4397 0
4261 -4397 0
4396 -4397 0
4397 4398 0
-4397 -4398 0
-4386 -4398 4399 0
4386 -4399 0
4398 -4399 0
-4280 -4281 4400 0
4280 -4400 0
4281 -4400 0
4400 4401 0
-4400 -4401 0
-4266 -4267 4402 0
4266 -4402 0
4267 -4402 0
4402 4403 0
-4402 -4403 0
-4401 -4403 4404 0
4401 -4404 0
4403 -4404 0
4404 4405 0
-4404 -4405 0
-4255 -4404 4406 0
4255 -4406 0
4404 -4406 0
4406 4407 0
-4406 -4407 0
-4382 -4407 4408 0
4382 -4408 0
4407 -4408 0
4408 4409 0
-4408 -4409 0
-4399 -4409 4410 0
4399 -4410 0
4409 -4410 0
4410 4411 0
-4410 -4411 0
-4394 -4411 4412 0
4394 -4412 0
4411 -4412 0
-4392 -4412 4413 0
4392 -4413 0
4412 -4413 0
4413 4414 0
-4413 -4414 0
-4287 -4290 4415 0
4287 -4415 0
4290 -4415 0
-4331 -4415 4416 0
4331 -4416 0
4415 -4416 0
4416 4417 0
-4416 -4417 0
-4284 -4417 4418 0
4284 -4418 0
4417 -4418 0
4418 4419 0
-4418 -4419 0
-4286 -4419 4420 0
4286 -4420 0
4419 -4420 0
-4309 -4420 4421 0
4309 -4421 0
4420 -4421 0
-4285 -4421 4422 0
4285 -4422 0
4421 -4422 0
4422 4423 0
-4422 -4423 0
-4248 -4309 4424 0
4248 -4424 0
4309 -4424 0
-4335 -4424 4425 0
4335 -4425 0
4424 -4425 0
4425 4426 0
-4425 -4426 0
-4285 -4424 4427 0
4285 -4427 0
4424 -4427 0
-4245 -4427 4428 0
4245 -4428 0
4427 -4428 0
4428 4429 0
-4428 -4429 0
-4273 -4428 4430 0
4273 -4430 0
4428 -4430 0
4430 4431 0
-4430 -4431 0
-4426 -4431 4432 0
4426 -4432 0
4431 -4432 0
-4246 -4311 4433 0
4246 -4433 0
4311 -4433 0
4433 4434 0
-4433 -4434 0
-4248 -4433 4435 0
4248 -4435 0
4433 -4435 0
4435 4436 0
-4435 -4436 0
-4432 -4436 4437 0
4432 -4437 0
4436 -4437 0
-4423 -4437 4438 0
4423 -4438 0
4437 -4438 0
4438 4439 0
-4438 -4439 0
-4277 -4265 4440 0
4277 -4440 0
4265 -4440 0
-4278 -4440 4441 0
4278 -4441 0
4440 -4441 0
4441 4442 0
-4441 -4442 0
-4283 -4442 4443 0
4283 -4443 0
4442 -4443 0
4443 4444 0
-4443 -4444 0
-4246 -4444 4445 0
4246 -4445 0
4444 -4445 0
-4352 -4445 4446 0
4352 -4446 0
4445 -4446 0
-4395 -4446 4447 0
4395 -4447 0
4446 -4447 0
4447 4448 0
-4447 -4448 0
-4245 -4444 4449 0
4245 -4449 0
4444 -4449 0
-4301 -4449 4450 0
4301 -4450 0
4449 -4450 0
-4380 -4450 4451 0
4380 -4451 0
4450 -4451 0
4451 4452 0
-4451 -4452 0
-4448 -4452 4453 0
4448 -4453 0
4452 -4453 0
-4283 -4286 4454 0
4283 -4454 0
4286 -4454 0
-4284 -4285 4455 0
4284 -4455 0
4285 -4455 0
-4454 -4455 4456 0
4454 -4456 0
4455 -4456 0
-4282 -4416 4457 0
4282 -4457 0
4416 -4457 0
-4456 -4457 4458 0
4456 -4458 0
4457 -4458 0
4458 4459 0
-4458 -4459 0
-4311 -4308 4460 0
4311 -4460 0
4308 -4460 0
4460 4461 0
-4460 -4461 0
-4459 -4461 4462 0
4459 -4462 0
4461 -4462 0
-4246 -4428 4463 0
4246 -4463 0
4428 -4463 0
4463 4464 0
-4463 -4464 0
-4272 -4324 4465 0
4272 -4465 0
4324 -4465 0
4465 4466 0
-4465 -4466 0
-4464 -4466 4467 0
4464 -4467 0
4466 -4467 0
-4462 -4467 4468 0
4462 -4468 0
4467 -4468 0
-4453 -4468 4469 0
4453 -4469 0
4468 -4469 0
-4434 -4469 4470 0
4434 -4470 0
4469 -4470 0
4470 4471 0
-4470 -4471 0
-4255 -4260 4472 0
4255 -4472 0
4260 -4472 0
-4265 -4352 4473 0
4265 -4473 0
4352 -4473 0
4473 4474 0
-4473 -4474 0
-4252 -4473 4475 0
4252 -4475 0
4473 -4475 0
-4384 -4475 4476 0
4384 -4476 0
4475 -4476 0
-4286 -4476 4477 0
4286 -4477 0
4476 -4477 0
4477 4478 0
-4477 -4478 0
-4388 -4478 4479 0
4388 -4479 0
4478 -4479 0
4479 4480 0
-4479 -4480 0
-4472 -4480 4481 0
4472 -4481 0
4480 -4481 0
4481 4482 0
-4481 -4482 0
-4275 -4386 4483 0
4275 -4483 0
4386 -4483 0
4483 4484 0
-4483 -4484 0
-4472 -4483 4485 0
4472 -4485 0
4483 -4485 0
4485 4486 0
-4485 -4486 0
-4482 -4486 4487 0
4482 -4487 0
4486 -4487 0
-4272 -4279 4488 0
4272 -4488 0
4279 -4488 0
4488 4489 0
-4488 -4489 0
-4265 -4291 4490 0
4265 -4490 0
4291 -4490 0
4490 4491 0
-4490 -4491 0
-4489 -4491 4492 0
4489 -4492 0
4491 -4492 0
4492 4493 0
-4492 -4493 0
-4283 -4493 4494 0
4283 -4494 0
4493 -4494 0
4494 4495 0
-4494 -4495 0
-4285 -4495 4496 0
4285 -4496 0
4495 -4496 0
-4346 -4351 4497 0
4346 -4497 0
4351 -4497 0
4497 4498 0
-4497 -4498 0
-4496 -4498 4499 0
4496 -4499 0
4498 -4499 0
4499 4500 0
-4499 -4500 0
-4357 -4500 4501 0
4357 -4501 0
4500 -4501 0
4501 4502 0
-4501 -4502 0
-4270 -4255 4503 0
4270 -4503 0
4255 -4503 0
-4450 -4503 4504 0
4450 -4504 0
4503 -4504 0
4504 4505 0
-4504 -4505 0
-4502 -4505 4506 0
4502 -4506 0
4505 -4506 0
-4487 -4506 4507 0
4487 -4507 0
4506 -4507 0
-4281 -4380 4508 0
4281 -4508 0
4380 -4508 0
4508 4509 0
-4508 -4509 0
-4267 -4395 4510 0
4267 -4510 0
4395 -4510 0
4510 4511 0
-4510 -4511 0
-4509 -4511 4512 0
4509 -4512 0
4511 -4512 0
4512 4513 0
-4512 -4513 0
-4279 -4352 4514 0
4279 -4514 0
4352 -4514 0
-4278 -4514 4515 0
4278 -4515 0
4514 -4515 0
-4263 -4515 4516 0
4263 -4516 0
4515 -4516 0
-4454 -4516 4517 0
4454 -4517 0
4516 -4517 0
-4513 -4517 4518 0
4513 -4518 0
4517 -4518 0
4518 4519 0
-4518 -4519 0
-4272 -4435 4520 0
4272 -4520 0
4435 -4520 0
4520 4521 0
-4520 -4521 0
-4519 -4521 4522 0
4519 -4522 0
4521 -4522 0
-4246 -4294 4523 0
4246 -4523 0
4294 -4523 0
4523 4524 0
-4523 -4524 0
-4283 -4356 4525 0
4283 -4525 0
4356 -4525 0
-4247 -4525 4526 0
4247 -4526 0
4525 -4526 0
-4351 -4526 4527 0
4351 -4527 0
4526 -4527 0
4527 4528 0
-4527 -4528 0
-4524 -4528 4529 0
4524 -4529 0
4528 -4529 0
-4522 -4529 4530 0
4522 -4530 0
4529 -4530 0
-4429 -4530 4531 0
4429 -4531 0
4530 -4531 0
-4507 -4531 4532 0
4507 -4532 0
4531 -4532 0
4532 4533 0
-4532 -4533 0
-4270 -4271 4534 0
4270 -4534 0
4271 -4534 0
4534 4535 0
-4534 -4535 0
-4260 -4534 4536 0
4260 -4536 0
4534 -4536 0
4536 4537 0
-4536 -4537 0
-4261 -4387 4538 0
4261 -4538 0
4387 -4538 0
-4537 -4538 4539 0
4537 -4539 0
4538 -4539 0
4539 4540 0
-4539 -4540 0
-4524 -4540 4541 0
4524 -4541 0
4540 -4541 0
-4454 -4514 4542 0
4454 -4542 0
4514 -4542 0
4542 4543 0
-4542 -4543 0
-4277 -4542 4544 0
4277 -4544 0
4542 -4544 0
-4513 -4544 4545 0
4513 -4545 0
4544 -4545 0
4545 4546 0
-4545 -4546 0
-4423 -4546 4547 0
4423 -4547 0
4546 -4547 0
-4268 -4253 4548 0
4268 -4548 0
4253 -4548 0
-4446 -4548 4549 0
4446 -4549 0
4548 -4549 0
4549 4550 0
-4549 -4550 0
-4332 -4346 4551 0
4332 -4551 0
4346 -4551 0
4551 4552 0
-4551 -4552 0
-4496 -4552 4553 0
4496 -4553 0
4552 -4553 0
4553 4554 0
-4553 -4554 0
-4336 -4554 4555 0
4336 -4555 0
4554 -4555 0
4555 4556 0
-4555 -4556 0
-4550 -4556 4557 0
4550 -4557 0
4556 -4557 0
-4547 -4557 4558 0
4547 -4558 0
4557 -4558 0
-4541 -4558 4559 0
4541 -4559 0
4558 -4559 0
4559 4560 0
-4559 -4560 0
-4323 -4355 4561 0
4323 -4561 0
4355 -4561 0
4561 4562 0
-4561 -4562 0
-4304 -4562 4563 0
4304 -4563 0
4562 -4563 0
-4279 -4335 4564 0
4279 -4564 0
4335 -4564 0
4564 4565 0
-4564 -4565 0
-4283 -4288 4566 0
4283 -4566 0
4288 -4566 0
-4564 -4566 4567 0
4564 -4567 0
4566 -4567 0
4567 4568 0
-4567 -4568 0
-4267 -4285 4569 0
4267 -4569 0
4285 -4569 0
-4567 -4569 4570 0
4567 -4570 0
4569 -4570 0
4570 4571 0
-4570 -4571 0
-4279 -4250 4572 0
4279 -4572 0
4250 -4572 0
-4525 -4572 4573 0
4525 -4573 0
4572 -4573 0
-4267 -4573 4574 0
4267 -4574 0
4573 -4574 0
4574 4575 0
-4574 -4575 0
-4571 -4575 4576 0
4571 -4576 0
4575 -4576 0
-4563 -4576 4577 0
4563 -4577 0
4576 -4577 0
4577 4578 0
-4577 -4578 0
-4323 -4335 4579 0
4323 -4579 0
4335 -4579 0
4579 4580 0
-4579 -4580 0
-4304 -4580 4581 0
4304 -4581 0
4580 -4581 0
-4285 -4573 4582 0
4285 -4582 0
4573 -4582 0
4582 4583 0
-4582 -4583 0
-4568 -4583 4584 0
4568 -4584 0
4583 -4584 0
4584 4585 0
-4584 -4585 0
-4281 -4585 4586 0
4281 -4586 0
4585 -4586 0
4586 4587 0
-4586 -4587 0
-4285 -4246 4588 0
4285 -4588 0
4246 -4588 0
4588 4589 0
-4588 -4589 0
-4287 -4589 4590 0
4287 -4590 0
4589 -4590 0
-4424 -4590 4591 0
4424 -4591 0
4590 -4591 0
4591 4592 0
-4591 -4592 0
-4587 -4592 4593 0
4587 -4593 0
4592 -4593 0
-4429 -4593 4594 0
4429 -4594 0
4593 -4594 0
-4581 -4594 4595 0
4581 -4595 0
4594 -4595 0
4595 4596 0
-4595 -4596 0
-4269 -4476 4597 0
4269 -4597 0
4476 -4597 0
4597 4598 0
-4597 -4598 0
-4383 -4597 4599 0
4383 -4599 0
4597 -4599 0
-4261 -4599 4600 0
4261 -4600 0
4599 -4600 0
4600 4601 0
-4600 -4601 0
-4448 -4601 4602 0
4448 -4602 0
4601 -4602 0
-4268 -4269 4603 0
4268 -4603 0
4269 -4603 0
4603 4604 0
-4603 -4604 0
-4351 -4604 4605 0
4351 -4605 0
4604 -4605 0
-4542 -4605 4606 0
4542 -4606 0
4605 -4606 0
-4263 -4264 4607 0
4263 -4607 0
4264 -4607 0
4607 4608 0
-4607 -4608 0
-4267 -4608 4609 0
4267 -4609 0
4608 -4609 0
-4606 -4609 4610 0
4606 -4610 0
4609 -4610 0
4610 4611 0
-4610 -4611 0
-4268 -4277 4612 0
4268 -4612 0
4277 -4612 0
-4278 -4296 4613 0
4278 -4613 0
4296 -4613 0
-4270 -4613 4614 0
4270 -4614 0
4613 -4614 0
-4320 -4614 4615 0
4320 -4615 0
4614 -4615 0
-4612 -4615 4616 0
4612 -4616 0
4615 -4616 0
4616 4617 0
-4616 -4617 0
-4611 -4617 4618 0
4611 -4618 0
4617 -4618 0
-4602 -4618 4619 0
4602 -4619 0
4618 -4619 0
-4350 -4433 4620 0
4350 -4620 0
4433 -4620 0
-4284 -4620 4621 0
4284 -4621 0
4620 -4621 0
4621 4622 0
-4621 -4622 0
-4619 -4622 4623 0
4619 -4623 0
4622 -4623 0
4623 4624 0
-4623 -4624 0
-4287 -4345 4625 0
4287 -4625 0
4345 -4625 0
-4333 -4625 4626 0
4333 -4626 0
4625 -4626 0
-4380 -4626 4627 0
4380 -4627 0
4626 -4627 0
4627 4628 0
-4627 -4628 0
-4503 -4626 4629 0
4503 -4629 0
4626 -4629 0
4629 4630 0
-4629 -4630 0
-4628 -4630 4631 0
4628 -4631 0
4630 -4631 0
4631 4632 0
-4631 -4632 0
-4608 -4632 4633 0
4608 -4633 0
4632 -4633 0
4633 4634 0
-4633 -4634 0
-4617 -4634 4635 0
4617 -4635 0
4634 -4635 0
-4385 -4398 4636 0
4385 -4636 0
4398 -4636 0
-4380 -4636 4637 0
4380 -4637 0
4636 -4637 0
4637 4638 0
-4637 -4638 0
-4260 -4637 4639 0
4260 -4639 0
4637 -4639 0
4639 4640 0
-4639 -4640 0
-4459 -4640 4641 0
4459 -4641 0
4640 -4641 0
-4452 -4641 4642 0
4452 -4642 0
4641 -4642 0
-4635 -4642 4643 0
4635 -4643 0
4642 -4643 0
4643 4644 0
-4643 -4644 0
-4429 -4592 4645 0
4429 -4645 0
4592 -4645 0
4645 4646 0
-4645 -4646 0
-4250 -4526 4647 0
4250 -4647 0
4526 -4647 0
4647 4648 0
-4647 -4648 0
-4267 -4303 4649 0
4267 -4649 0
4303 -4649 0
4649 4650 0
-4649 -4650 0
-4648 -4650 4651 0
4648 -4651 0
4650 -4651 0
-4281 -4573 4652 0
4281 -4652 0
4573 -4652 0
4652 4653 0
-4652 -4653 0
-4571 -4653 4654 0
4571 -4654 0
4653 -4654 0
-4651 -4654 4655 0
4651 -4655 0
4654 -4655 0
4655 4656 0
-4655 -4656 0
-4266 -4303 4657 0
4266 -4657 0
4303 -4657 0
4657 4658 0
-4657 -4658 0
-4283 -4324 4659 0
4283 -4659 0
4324 -4659 0
4659 4660 0
-4659 -4660 0
-4349 -4660 4661 0
4349 -4661 0
4660 -4661 0
-4658 -4661 4662 0
4658 -4662 0
4661 -4662 0
4662 4663 0
-4662 -4663 0
-4265 -4313 4664 0
4265 -4664 0
4313 -4664 0
4664 4665 0
-4664 -4665 0
-4459 -4665 4666 0
4459 -4666 0
4665 -4666 0
-4252 -4368 4667 0
4252 -4667 0
4368 -4667 0
4667 4668 0
-4667 -4668 0
-4254 -4370 4669 0
4254 -4669 0
4370 -4669 0
4669 4670 0
-4669 -4670 0
-4668 -4670 4671 0
4668 -4671 0
4670 -4671 0
4671 4672 0
-4671 -4672 0
-4613 -4672 4673 0
4613 -4673 0
4672 -4673 0
-4440 -4673 4674 0
4440 -4674 0
4673 -4674 0
4674 4675 0
-4674 -4675 0
-4543 -4617 4676 0
4543 -4676 0
4617 -4676 0
-4675 -4676 4677 0
4675 -4677 0
4676 -4677 0
-4666 -4677 4678 0
4666 -4678 0
4677 -4678 0
4678 4679 0
-4678 -4679 0
-4247 -4322 4680 0
4247 -4680 0
4322 -4680 0
4680 4681 0
-4680 -4681 0
-4565 -4681 4682 0
4565 -4682 0
4681 -4682 0
4682 4683 0
-4682 -4683 0
-4566 -4683 4684 0
4566 -4684 0
4683 -4684 0
4684 4685 0
-4684 -4685 0
-4436 -4685 4686 0
4436 -4686 0
4685 -4686 0
-4286 -4427 4687 0
4286 -4687 0
4427 -4687 0
4687 4688 0
-4687 -4688 0
-4304 -4688 4689 0
4304 -4689 0
4688 -4689 0
-4429 -4689 4690 0
4429 -4690 0
4689 -4690 0
-4686 -4690 4691 0
4686 -4691 0
4690 -4691 0
4691 4692 0
-4691 -4692 0
-4304 -4583 4693 0
4304 -4693 0
4583 -4693 0
4693 4694 0
-4693 -4694 0
-4265 -4456 4695 0
4265 -4695 0
4456 -4695 0
-4287 -4695 4696 0
4287 -4696 0
4695 -4696 0
4696 4697 0
-4696 -4697 0
-4333 -4608 4698 0
4333 -4698 0
4608 -4698 0
4698 4699 0
-4698 -4699 0
-4327 -4699 4700 0
4327 -4700 0
4699 -4700 0
4700 4701 0
-4700 -4701 0
-4271 -4701 4702 0
4271 -4702 0
4701 -4702 0
4702 4703 0
-4702 -4703 0
-4697 -4703 4704 0
4697 -4704 0
4703 -4704 0
-4353 -4608 4705 0
4353 -4705 0
4608 -4705 0
4705 4706 0
-4705 -4706 0
-4474 -4706 4707 0
4474 -4707 0
4706 -4707 0
4707 4708 0
-4707 -4708 0
-4269 -4708 4709 0
4269 -4709 0
4708 -4709 0
4709 4710 0
-4709 -4710 0
-4318 -4309 4711 0
4318 -4711 0
4309 -4711 0
4711 4712 0
-4711 -4712 0
-4710 -4712 4713 0
4710 -4713 0
4712 -4713 0
-4429 -4713 4714 0
4429 -4714 0
4713 -4714 0
-4704 -4714 4715 0
4704 -4715 0
4714 -4715 0
4715 4716 0
-4715 -4716 0
-4281 -4514 4717 0
4281 -4717 0
4514 -4717 0
-4255 -4277 4718 0
4255 -4718 0
4277 -4718 0
-4717 -4718 4719 0
4717 -4719 0
4718 -4719 0
4719 4720 0
-4719 -4720 0
-4245 -4297 4721 0
4245 -4721 0
4297 -4721 0
4721 4722 0
-4721 -4722 0
-4720 -4722 4723 0
4720 -4723 0
4722 -4723 0
-4253 -4267 4724 0
4253 -4724 0
4267 -4724 0
4724 4725 0
-4724 -4725 0
-4270 -4281 4726 0
4270 -4726 0
4281 -4726 0
4726 4727 0
-4726 -4727 0
-4725 -4727 4728 0
4725 -4728 0
4727 -4728 0
4728 4729 0
-4728 -4729 0
-4515 -4729 4730 0
4515 -4730 0
4729 -4730 0
4730 4731 0
-4730 -4731 0
-4712 -4731 4732 0
4712 -4732 0
4731 -4732 0
-4353 -4612 4733 0
4353 -4733 0
4612 -4733 0
-4279 -4733 4734 0
4279 -4734 0
4733 -4734 0
4734 4735 0
-4734 -4735 0
-4429 -4735 4736 0
4429 -4736 0
4735 -4736 0
-4732 -4736 4737 0
4732 -4737 0
4736 -4737 0
-4723 -4737 4738 0
4723 -4738 0
4737 -4738 0
4738 4739 0
-4738 -4739 0
-4247 -4318 4740 0
4247 -4740 0
4318 -4740 0
4740 4741 0
-4740 -4741 0
-4285 -4320 4742 0
4285 -4742 0
4320 -4742 0
-4258 -4742 4743 0
4258 -4743 0
4742 -4743 0
4743 4744 0
-4743 -4744 0
-4741 -4744 4745 0
4741 -4745 0
4744 -4745 0
4745 4746 0
-4745 -4746 0
-4424 -4746 4747 0
4424 -4747 0
4746 -4747 0
4747 4748 0
-4747 -4748 0
-4484 -4598 4749 0
4484 -4749 0
4598 -4749 0
4749 4750 0
-4749 -4750 0
-4274 -4750 4751 0
4274 -4751 0
4750 -4751 0
4751 4752 0
-4751 -4752 0
-4638 -4752 4753 0
4638 -4753 0
4752 -4753 0
-4267 -4544 4754 0
4267 -4754 0
4544 -4754 0
-4605 -4754 4755 0
4605 -4755 0
4754 -4755 0
4755 4756 0
-4755 -4756 0
-4332 -4535 4757 0
4332 -4757 0
4535 -4757 0
-4626 -4757 4758 0
4626 -4758 0
4757 -4758 0
-4277 -4758 4759 0
4277 -4759 0
4758 -4759 0
4759 4760 0
-4759 -4760 0
-4756 -4760 4761 0
4756 -4761 0
4760 -4761 0
-4617 -4675 4762 0
4617 -4762 0
4675 -4762 0
-4761 -4762 4763 0
4761 -4763 0
4762 -4763 0
-4753 -4763 4764 0
4753 -4764 0
4763 -4764 0
-4748 -4764 4765 0
4748 -4765 0
4764 -4765 0
4765 4766 0
-4765 -4766 0
-4279 -4267 4767 0
4279 -4767 0
4267 -4767 0
-4268 -4263 4768 0
4268 -4768 0
4263 -4768 0
-4767 -4768 4769 0
4767 -4769 0
4768 -4769 0
4769 4770 0
-4769 -4770 0
-4274 -4281 4771 0
4274 -4771 0
4281 -4771 0
-4440 -4771 4772 0
4440 -4772 0
4771 -4772 0
-4261 -4772 4773 0
4261 -4773 0
4772 -4773 0
4773 4774 0
-4773 -4774 0
-4770 -4774 4775 0
4770 -4775 0
4774 -4775 0
4775 4776 0
-4775 -4776 0
-4253 -4776 4777 0
4253 -4777 0
4776 -4777 0
-4613 -4777 4778 0
4613 -4778 0
4777 -4778 0
-4318 -4778 4779 0
4318 -4779 0
4778 -4779 0
4779 4780 0
-4779 -4780 0
-4405 -4485 4781 0
4405 -4781 0
4485 -4781 0
4781 4782 0
-4781 -4782 0
-4780 -4782 4783 0
4780 -4783 0
4782 -4783 0
-4281 -4757 4784 0
4281 -4784 0
4757 -4784 0
4784 4785 0
-4784 -4785 0
-4511 -4785 4786 0
4511 -4786 0
4785 -4786 0
4786 4787 0
-4786 -4787 0
-4517 -4787 4788 0
4517 -4788 0
4787 -4788 0
4788 4789 0
-4788 -4789 0
-4783 -4789 4790 0
4783 -4790 0
4789 -4790 0
4790 4791 0
-4790 -4791 0
-4276 -4291 4792 0
4276 -4792 0
4291 -4792 0
-4277 -4629 4793 0
4277 -4793 0
4629 -4793 0
4793 4794 0
-4793 -4794 0
-4548 -4754 4795 0
4548 -4795 0
4754 -4795 0
4795 4796 0
-4795 -4796 0
-4617 -4796 4797 0
4617 -4797 0
4796 -4797 0
-4259 -4303 4798 0
4259 -4798 0
4303 -4798 0
4798 4799 0
-4798 -4799 0
-4685 -4799 4800 0
4685 -4800 0
4799 -4800 0
4800 4801 0
-4800 -4801 0
-4256 -4801 4802 0
4256 -4802 0
4801 -4802 0
4802 4803 0
-4802 -4803 0
-4748 -4803 4804 0
4748 -4804 0
4803 -4804 0
-4797 -4804 4805 0
4797 -4805 0
4804 -4805 0
-4794 -4805 4806 0
4794 -4806 0
4805 -4806 0
4806 4807 0
-4806 -4807 0
-4256 -4582 4808 0
4256 -4808 0
4582 -4808 0
4808 4809 0
-4808 -4809 0
-4780 -4809 4810 0
4780 -4810 0
4809 -4810 0
-4278 -4629 4811 0
4278 -4811 0
4629 -4811 0
-4263 -4811 4812 0
4263 -4812 0
4811 -4812 0
4812 4813 0
-4812 -4813 0
-4782 -4813 4814 0
4782 -4814 0
4813 -4814 0
-4810 -4814 4815 0
4810 -4815 0
4814 -4815 0
4815 4816 0
-4815 -4816 0
-4276 -4264 4817 0
4276 -4817 0
4264 -4817 0
-4276 -4278 4818 0
4276 -4818 0
4278 -4818 0
-4248 -4285 4819 0
4248 -4819 0
4285 -4819 0
-4711 -4819 4820 0
4711 -4820 0
4819 -4820 0
-4538 -4771 4821 0
4538 -4821 0
4771 -4821 0
4821 4822 0
-4821 -4822 0
-4782 -4822 4823 0
4782 -4823 0
4822 -4823 0
4823 4824 0
-4823 -4824 0
-4825 4824 0
4825 -4824 0
-4826 4820 0
4826 -4820 0
-4827 4818 0
4827 -4818 0
-4828 4817 0
4828 -4817 0
-4829 4816 0
4829 -4816 0
-4830 4807 0
4830 -4807 0
-4831 4792 0
4831 -4792 0
-4832 4791 0
4832 -4791 0
-4833 4766 0
4833 -4766 0
-4834 4739 0
4834 -4739 0
-4835 4716 0
4835 -4716 0
-4836 4694 0
4836 -4694 0
-4837 4692 0
4837 -4692 0
-4838 4679 0
4838 -4679 0
-4839 4303 0
4839 -4303 0
-4840 4663 0
4840 -4663 0
-4841 4656 0
4841 -4656 0
-4842 4313 0
4842 -4313 0
-4843 4646 0
4843 -4646 0
-4844 4644 0
4844 -4644 0
-4845 4624 0
4845 -4624 0
-4846 4596 0
4846 -4596 0
-4847 4578 0
4847 -4578 0
-4848 4560 0
4848 -4560 0
-4849 4533 0
4849 -4533 0
-4850 4471 0
4850 -4471 0
-4851 4439 0
4851 -4439 0
-4852 4414 0
4852 -4414 0
-4853 4367 0
4853 -4367 0
4855 4871 0
-4855 -4871 0
4856 4872 0
-4856 -4872 0
4857 4873 0
-4857 -4873 0
4858 4874 0
-4858 -4874 0
4859 4875 0
-4859 -4875 0
4861 4876 0
-4861 -4876 0
4863 4877 0
-4863 -4877 0
4864 4878 0
-4864 -4878 0
4865 4879 0
-4865 -4879 0
4866 4880 0
-4866 -4880 0
4867 4881 0
-4867 -4881 0
4868 4882 0
-4868 -4882 0
4869 4883 0
-4869 -4883 0
4870 4884 0
-4870 -4884 0
4853 4885 0
-4853 -4885 0
4852 4886 0
-4852 -4886 0
4851 4887 0
-4851 -4887 0
4850 4888 0
-4850 -4888 0
4849 4889 0
-4849 -4889 0
4848 4890 0
-4848 -4890 0
-4853 -4887 4891 0
4853 -4891 0
4887 -4891 0
-4888 -4891 4892 0
4888 -4892 0
4891 -4892 0
-4880 -4881 4893 0
4880 -4893 0
4881 -4893 0
4893 4894 0
-4893 -4894 0
-4886 -4894 4895 0
4886 -4895 0
4894 -4895 0
-4892 -4895 4896 0
4892 -4896 0
4895 -4896 0
-4848 -4896 4897 0
4848 -4897 0
4896 -4897 0
4897 4898 0
-4897 -4898 0
-4886 -4892 4899 0
4886 -4899 0
4892 -4899 0
-4873 -4899 4900 0
4873 -4900 0
4899 -4900 0
-4871 -4900 4901 0
4871 -4901 0
4900 -4901 0
4901 4902 0
-4901 -4902 0
-4898 -4902 4903 0
4898 -4903 0
4902 -4903 0
-4889 -4892 4904 0
4889 -4904 0
4892 -4904 0
-4852 -4890 4905 0
4852 -4905 0
4890 -4905 0
-4904 -4905 4906 0
4904 -4906 0
4905 -4906 0
4906 4907 0
-4906 -4907 0
-4882 -4883 4908 0
4882 -4908 0
4883 -4908 0
4908 4909 0
-4908 -4909 0
-4860 -4887 4910 0
4860 -4910 0
4887 -4910 0
4910 4911 0
-4910 -4911 0
-4885 -4886 4912 0
4885 -4912 0
4886 -4912 0
-4850 -4890 4913 0
4850 -4913 0
4890 -4913 0
-4912 -4913 4914 0
4912 -4914 0
4913 -4914 0
-4889 -4914 4915 0
4889 -4915 0
4914 -4915 0
-4910 -4915 4916 0
4910 -4916 0
4915 -4916 0
-4909 -4916 4917 0
4909 -4917 0
4916 -4917 0
4917 4918 0
-4917 -4918 0
-4907 -4918 4919 0
4907 -4919 0
4918 -4919 0
-4903 -4919 4920 0
4903 -4920 0
4919 -4920 0
-4889 -4890 4921 0
4889 -4921 0
4890 -4921 0
4921 4922 0
-4921 -4922 0
-4849 -4848 4923 0
4849 -4923 0
4848 -4923 0
4923 4924 0
-4923 -4924 0
-4922 -4924 4925 0
4922 -4925 0
4924 -4925 0
-4850 -4891 4926 0
4850 -4926 0
4891 -4926 0
-4925 -4926 4927 0
4925 -4927 0
4926 -4927 0
4927 4928 0
-4927 -4928 0
-4868 -4904 4929 0
4868 -4929 0
4904 -4929 0
4929 4930 0
-4929 -4930 0
-4890 -4929 4931 0
4890 -4931 0
4929 -4931 0
4931 4932 0
-4931 -4932 0
-4928 -4932 4933 0
4928 -4933 0
4932 -4933 0
-4857 -4858 4934 0
4857 -4934 0
4858 -4934 0
4934 4935 0
-4934 -4935 0
-4884 -4904 4936 0
4884 -4936 0
4904 -4936 0
4936 4937 0
-4936 -4937 0
-4889 -4848 4938 0
4889 -4938 0
4848 -4938 0
-4891 -4938 4939 0
4891 -4939 0
4938 -4939 0
4939 4940 0
-4939 -4940 0
-4937 -4940 4941 0
4937 -4941 0
4940 -4941 0
4941 4942 0
-4941 -4942 0
-4935 -4942 4943 0
4935 -4943 0
4942 -4943 0
4943 4944 0
-4943 -4944 0
-4868 -4896 4945 0
4868 -4945 0
4896 -4945 0
4945 4946 0
-4945 -4946 0
-4944 -4946 4947 0
4944 -4947 0
4946 -4947 0
-4882 -4886 4948 0
4882 -4948 0
4886 -4948 0
4948 4949 0
-4948 -4949 0
-4925 -4948 4950 0
4925 -4950 0
4948 -4950 0
-4891 -4950 4951 0
4891 -4951 0
4950 -4951 0
4951 4952 0
-4951 -4952 0
-4855 -4856 4953 0
4855 -4953 0
4856 -4953 0
4953 4954 0
-4953 -4954 0
-4890 -4892 4955 0
4890 -4955 0
4892 -4955 0
-4870 -4955 4956 0
4870 -4956 0
4955 -4956 0
4956 4957 0
-4956 -4957 0
-4849 -4890 4958 0
4849 -4958 0
4890 -4958 0
-4887 -4958 4959 0
4887 -4959 0
4958 -4959 0
-4853 -4959 4960 0
4853 -4960 0
4959 -4960 0
4960 4961 0
-4960 -4961 0
-4957 -4961 4962 0
4957 -4962 0
4961 -4962 0
4962 4963 0
-4962 -4963 0
-4954 -4963 4964 0
4954 -4964 0
4963 -4964 0
4964 4965 0
-4964 -4965 0
-4952 -4965 4966 0
4952 -4966 0
4965 -4966 0
-4947 -4966 4967 0
4947 -4967 0
4966 -4967 0
-4933 -4967 4968 0
4933 -4968 0
4967 -4968 0
-4920 -4968 4969 0
4920 -4969 0
4968 -4969 0
4969 4970 0
-4969 -4970 0
-4872 -4958 4971 0
4872 -4971 0
4958 -4971 0
4971 4972 0
-4971 -4972 0
-4874 -4938 4973 0
4874 -4973 0
4938 -4973 0
4973 4974 0
-4973 -4974 0
-4972 -4974 4975 0
4972 -4975 0
4974 -4975 0
4975 4976 0
-4975 -4976 0
-4891 -4976 4977 0
4891 -4977 0
4976 -4977 0
4977 4978 0
-4977 -4978 0
-4928 -4978 4979 0
4928 -4979 0
4978 -4979 0
4979 4980 0
-4979 -4980 0
-4852 -4980 4981 0
4852 -4981 0
4980 -4981 0
4981 4982 0
-4981 -4982 0
-4857 -4874 4983 0
4857 -4983 0
4874 -4983 0
4983 4984 0
-4983 -4984 0
-4863 -4984 4985 0
4863 -4985 0
4984 -4985 0
4985 4986 0
-4985 -4986 0
-4886 -4893 4987 0
4886 -4987 0
4893 -4987 0
-4929 -4987 4988 0
4929 -4988 0
4987 -4988 0
-4890 -4988 4989 0
4890 -4989 0
4988 -4989 0
-4856 -4989 4990 0
4856 -4990 0
4989 -4990 0
4990 4991 0
-4990 -4991 0
-4986 -4990 4992 0
4986 -4992 0
4990 -4992 0
-4870 -4992 4993 0
4870 -4993 0
4992 -4993 0
4993 4994 0
-4993 -4994 0
-4982 -4994 4995 0
4982 -4995 0
4994 -4995 0
-4875 -4906 4996 0
4875 -4996 0
4906 -4996 0
4996 4997 0
-4996 -4997 0
-4855 -4872 4998 0
4855 -4998 0
4872 -4998 0
4998 4999 0
-4998 -4999 0
-4864 -4999 5000 0
4864 -5000 0
4999 -5000 0
5000 5001 0
-5000 -5001 0
-4989 -5001 5002 0
4989 -5002 0
5001 -5002 0
-4883 -4884 5003 0
4883 -5003 0
4884 -5003 0
5003 5004 0
-5003 -5004 0
-4869 -4870 5005 0
4869 -5005 0
4870 -5005 0
5005 5006 0
-5005 -5006 0
-5004 -5006 5007 0
5004 -5007 0
5006 -5007 0
5007 5008 0
-5007 -5008 0
-4858 -5007 5009 0
4858 -5009 0
5007 -5009 0
5009 5010 0
-5009 -5010 0
-4985 -5010 5011 0
4985 -5011 0
5010 -5011 0
5011 5012 0
-5011 -5012 0
-5002 -5012 5013 0
5002 -5013 0
5012 -5013 0
5013 5014 0
-5013 -5014 0
-4997 -5014 5015 0
4997 -5015 0
5014 -5015 0
-4995 -5015 5016 0
4995 -5016 0
5015 -5016 0
5016 5017 0
-5016 -5017 0
-4890 -4893 5018 0
4890 -5018 0
4893 -5018 0
-4934 -5018 5019 0
4934 -5019 0
5018 -5019 0
5019 5020 0
-5019 -5020 0
-4887 -5020 5021 0
4887 -5021 0
5020 -5021 0
5021 5022 0
-5021 -5022 0
-4889 -5022 5023 0
4889 -5023 0
5022 -5023 0
-4912 -5023 5024 0
4912 -5024 0
5023 -5024 0
-4888 -5024 5025 0
4888 -5025 0
5024 -5025 0
5025 5026 0
-5025 -5026 0
-4851 -4912 5027 0
4851 -5027 0
4912 -5027 0
-4938 -5027 5028 0
4938 -5028 0
5027 -5028 0
5028 5029 0
-5028 -5029 0
-4888 -5027 5030 0
4888 -5030 0
5027 -5030 0
-4848 -5030 5031 0
4848 -5031 0
5030 -5031 0
5031 5032 0
-5031 -5032 0
-4876 -5031 5033 0
4876 -5033 0
5031 -5033 0
5033 5034 0
-5033 -5034 0
-5029 -5034 5035 0
5029 -5035 0
5034 -5035 0
-4849 -4914 5036 0
4849 -5036 0
4914 -5036 0
5036 5037 0
-5036 -5037 0
-4851 -5036 5038 0
4851 -5038 0
5036 -5038 0
5038 5039 0
-5038 -5039 0
-5035 -5039 5040 0
5035 -5040 0
5039 -5040 0
-5026 -5040 5041 0
5026 -5041 0
5040 -5041 0
5041 5042 0
-5041 -5042 0
-4880 -4868 5043 0
4880 -5043 0
4868 -5043 0
-4881 -5043 5044 0
4881 -5044 0
5043 -5044 0
5044 5045 0
-5044 -5045 0
-4886 -5045 5046 0
4886 -5046 0
5045 -5046 0
5046 5047 0
-5046 -5047 0
-4849 -5047 5048 0
4849 -5048 0
5047 -5048 0
-4955 -5048 5049 0
4955 -5049 0
5048 -5049 0
-4998 -5049 5050 0
4998 -5050 0
5049 -5050 0
5050 5051 0
-5050 -5051 0
-4848 -5047 5052 0
4848 -5052 0
5047 -5052 0
-4904 -5052 5053 0
4904 -5053 0
5052 -5053 0
-4983 -5053 5054 0
4983 -5054 0
5053 -5054 0
5054 5055 0
-5054 -5055 0
-5051 -5055 5056 0
5051 -5056 0
5055 -5056 0
-4886 -4889 5057 0
4886 -5057 0
4889 -5057 0
-4887 -4888 5058 0
4887 -5058 0
4888 -5058 0
-5057 -5058 5059 0
5057 -5059 0
5058 -5059 0
-4885 -5019 5060 0
4885 -5060 0
5019 -5060 0
-5059 -5060 5061 0
5059 -5061 0
5060 -5061 0
5061 5062 0
-5061 -5062 0
-4914 -4911 5063 0
4914 -5063 0
4911 -5063 0
5063 5064 0
-5063 -5064 0
-5062 -5064 5065 0
5062 -5065 0
5064 -5065 0
-4849 -5031 5066 0
4849 -5066 0
5031 -5066 0
5066 5067 0
-5066 -5067 0
-4875 -4927 5068 0
4875 -5068 0
4927 -5068 0
5068 5069 0
-5068 -5069 0
-5067 -5069 5070 0
5067 -5070 0
5069 -5070 0
-5065 -5070 5071 0
5065 -5071 0
5070 -5071 0
-5056 -5071 5072 0
5056 -5072 0
5071 -5072 0
-5037 -5072 5073 0
5037 -5073 0
5072 -5073 0
5073 5074 0
-5073 -5074 0
-4858 -4863 5075 0
4858 -5075 0
4863 -5075 0
-4868 -4955 5076 0
4868 -5076 0
4955 -5076 0
5076 5077 0
-5076 -5077 0
-4855 -5076 5078 0
4855 -5078 0
5076 -5078 0
-4987 -5078 5079 0
4987 -5079 0
5078 -5079 0
-4889 -5079 5080 0
4889 -5080 0
5079 -5080 0
5080 5081 0
-5080 -5081 0
-4991 -5081 5082 0
4991 -5082 0
5081 -5082 0
5082 5083 0
-5082 -5083 0
-5075 -5083 5084 0
5075 -5084 0
5083 -5084 0
5084 5085 0
-5084 -5085 0
-4878 -4989 5086 0
4878 -5086 0
4989 -5086 0
5086 5087 0
-5086 -5087 0
-5075 -5086 5088 0
5075 -5088 0
5086 -5088 0
5088 5089 0
-5088 -5089 0
-5085 -5089 5090 0
5085 -5090 0
5089 -5090 0
-4875 -4882 5091 0
4875 -5091 0
4882 -5091 0
5091 5092 0
-5091 -5092 0
-4868 -4894 5093 0
4868 -5093 0
4894 -5093 0
5093 5094 0
-5093 -5094 0
-5092 -5094 5095 0
5092 -5095 0
5094 -5095 0
5095 5096 0
-5095 -5096 0
-4886 -5096 5097 0
4886 -5097 0
5096 -5097 0
5097 5098 0
-5097 -5098 0
-4888 -5098 5099 0
4888 -5099 0
5098 -5099 0
-4949 -4954 5100 0
4949 -5100 0
4954 -5100 0
5100 5101 0
-5100 -5101 0
-5099 -5101 5102 0
5099 -5102 0
5101 -5102 0
5102 5103 0
-5102 -5103 0
-4960 -5103 5104 0
4960 -5104 0
5103 -5104 0
5104 5105 0
-5104 -5105 0
-4873 -4858 5106 0
4873 -5106 0
4858 -5106 0
-5053 -5106 5107 0
5053 -5107 0
5106 -5107 0
5107 5108 0
-5107 -5108 0
-5105 -5108 5109 0
5105 -5109 0
5108 -5109 0
-5090 -5109 5110 0
5090 -5110 0
5109 -5110 0
-4884 -4983 5111 0
4884 -5111 0
4983 -5111 0
5111 5112 0
-5111 -5112 0
-4870 -4998 5113 0
4870 -5113 0
4998 -5113 0
5113 5114 0
-5113 -5114 0
-5112 -5114 5115 0
5112 -5115 0
5114 -5115 0
5115 5116 0
-5115 -5116 0
-4882 -4955 5117 0
4882 -5117 0
4955 -5117 0
-4881 -5117 5118 0
4881 -5118 0
5117 -5118 0
-4866 -5118 5119 0
4866 -5119 0
5118 -5119 0
-5057 -5119 5120 0
5057 -5120 0
5119 -5120 0
-5116 -5120 5121 0
5116 -5121 0
5120 -5121 0
5121 5122 0
-5121 -5122 0
-4875 -5038 5123 0
4875 -5123 0
5038 -5123 0
5123 5124 0
-5123 -5124 0
-5122 -5124 5125 0
5122 -5125 0
5124 -5125 0
-4849 -4897 5126 0
4849 -5126 0
4897 -5126 0
5126 5127 0
-5126 -5127 0
-4886 -4959 5128 0
4886 -5128 0
4959 -5128 0
-4850 -5128 5129 0
4850 -5129 0
5128 -5129 0
-4954 -5129 5130 0
4954 -5130 0
5129 -5130 0
5130 5131 0
-5130 -5131 0
-5127 -5131 5132 0
5127 -5132 0
5131 -5132 0
-5125 -5132 5133 0
5125 -5133 0
5132 -5133 0
-5032 -5133 5134 0
5032 -5134 0
5133 -5134 0
-5110 -5134 5135 0
5110 -5135 0
5134 -5135 0
5135 5136 0
-5135 -5136 0
-4873 -4874 5137 0
4873 -5137 0
4874 -5137 0
5137 5138 0
-5137 -5138 0
-4863 -5137 5139 0
4863 -5139 0
5137 -5139 0
5139 5140 0
-5139 -5140 0
-4864 -4990 5141 0
4864 -5141 0
4990 -5141 0
-5140 -5141 5142 0
5140 -5142 0
5141 -5142 0
5142 5143 0
-5142 -5143 0
-5127 -5143 5144 0
5127 -5144 0
5143 -5144 0
-5057 -5117 5145 0
5057 -5145 0
5117 -5145 0
5145 5146 0
-5145 -5146 0
-4880 -5145 5147 0
4880 -5147 0
5145 -5147 0
-5116 -5147 5148 0
5116 -5148 0
5147 -5148 0
5148 5149 0
-5148 -5149 0
-5026 -5149 5150 0
5026 -5150 0
5149 -5150 0
-4871 -4856 5151 0
4871 -5151 0
4856 -5151 0
-5049 -5151 5152 0
5049 -5152 0
5151 -5152 0
5152 5153 0
-5152 -5153 0
-4935 -4949 5154 0
4935 -5154 0
4949 -5154 0
5154 5155 0
-5154 -5155 0
-5099 -5155 5156 0
5099 -5156 0
5155 -5156 0
5156 5157 0
-5156 -5157 0
-4939 -5157 5158 0
4939 -5158 0
5157 -5158 0
5158 5159 0
-5158 -5159 0
-5153 -5159 5160 0
5153 -5160 0
5159 -5160 0
-5150 -5160 5161 0
5150 -5161 0
5160 -5161 0
-5144 -5161 5162 0
5144 -5162 0
5161 -5162 0
5162 5163 0
-5162 -5163 0
-4926 -4958 5164 0
4926 -5164 0
4958 -5164 0
5164 5165 0
-5164 -5165 0
-4907 -5165 5166 0
4907 -5166 0
5165 -5166 0
-4882 -4938 5167 0
4882 -5167 0
4938 -5167 0
5167 5168 0
-5167 -5168 0
-4886 -4891 5169 0
4886 -5169 0
4891 -5169 0
-5167 -5169 5170 0
5167 -5170 0
5169 -5170 0
5170 5171 0
-5170 -5171 0
-4870 -4888 5172 0
4870 -5172 0
4888 -5172 0
-5170 -5172 5173 0
5170 -5173 0
5172 -5173 0
5173 5174 0
-5173 -5174 0
-4882 -4853 5175 0
4882 -5175 0
4853 -5175 0
-5128 -5175 5176 0
5128 -5176 0
5175 -5176 0
-4870 -5176 5177 0
4870 -5177 0
5176 -5177 0
5177 5178 0
-5177 -5178 0
-5174 -5178 5179 0
5174 -5179 0
5178 -5179 0
-5166 -5179 5180 0
5166 -5180 0
5179 -5180 0
5180 5181 0
-5180 -5181 0
-4926 -4938 5182 0
4926 -5182 0
4938 -5182 0
5182 5183 0
-5182 -5183 0
-4907 -5183 5184 0
4907 -5184 0
5183 -5184 0
-4888 -5176 5185 0
4888 -5185 0
5176 -5185 0
5185 5186 0
-5185 -5186 0
-5171 -5186 5187 0
5171 -5187 0
5186 -5187 0
5187 5188 0
-5187 -5188 0
-4884 -5188 5189 0
4884 -5189 0
5188 -5189 0
5189 5190 0
-5189 -5190 0
-4888 -4849 5191 0
4888 -5191 0
4849 -5191 0
5191 5192 0
-5191 -5192 0
-4890 -5192 5193 0
4890 -5193 0
5192 -5193 0
-5027 -5193 5194 0
5027 -5194 0
5193 -5194 0
5194 5195 0
-5194 -5195 0
-5190 -5195 5196 0
5190 -5196 0
5195 -5196 0
-5032 -5196 5197 0
5032 -5197 0
5196 -5197 0
-5184 -5197 5198 0
5184 -5198 0
5197 -5198 0
5198 5199 0
-5198 -5199 0
-4872 -5079 5200 0
4872 -5200 0
5079 -5200 0
5200 5201 0
-5200 -5201 0
-4986 -5200 5202 0
4986 -5202 0
5200 -5202 0
-4864 -5202 5203 0
4864 -5203 0
5202 -5203 0
5203 5204 0
-5203 -5204 0
-5051 -5204 5205 0
5051 -5205 0
5204 -5205 0
-4871 -4872 5206 0
4871 -5206 0
4872 -5206 0
5206 5207 0
-5206 -5207 0
-4954 -5207 5208 0
4954 -5208 0
5207 -5208 0
-5145 -5208 5209 0
5145 -5209 0
5208 -5209 0
-4866 -4867 5210 0
4866 -5210 0
4867 -5210 0
5210 5211 0
-5210 -5211 0
-4870 -5211 5212 0
4870 -5212 0
5211 -5212 0
-5209 -5212 5213 0
5209 -5213 0
5212 -5213 0
5213 5214 0
-5213 -5214 0
-4871 -4880 5215 0
4871 -5215 0
4880 -5215 0
-4881 -4899 5216 0
4881 -5216 0
4899 -5216 0
-4873 -5216 5217 0
4873 -5217 0
5216 -5217 0
-4923 -5217 5218 0
4923 -5218 0
5217 -5218 0
-5215 -5218 5219 0
5215 -5219 0
5218 -5219 0
5219 5220 0
-5219 -5220 0
-5214 -5220 5221 0
5214 -5221 0
5220 -5221 0
-5205 -5221 5222 0
5205 -5222 0
5221 -5222 0
-4953 -5036 5223 0
4953 -5223 0
5036 -5223 0
-4887 -5223 5224 0
4887 -5224 0
5223 -5224 0
5224 5225 0
-5224 -5225 0
-5222 -5225 5226 0
5222 -5226 0
5225 -5226 0
5226 5227 0
-5226 -5227 0
-4890 -4948 5228 0
4890 -5228 0
4948 -5228 0
-4936 -5228 5229 0
4936 -5229 0
5228 -5229 0
-4983 -5229 5230 0
4983 -5230 0
5229 -5230 0
5230 5231 0
-5230 -5231 0
-5106 -5229 5232 0
5106 -5232 0
5229 -5232 0
5232 5233 0
-5232 -5233 0
-5231 -5233 5234 0
5231 -5234 0
5233 -5234 0
5234 5235 0
-5234 -5235 0
-5211 -5235 5236 0
5211 -5236 0
5235 -5236 0
5236 5237 0
-5236 -5237 0
-5220 -5237 5238 0
5220 -5238 0
5237 -5238 0
-4988 -5001 5239 0
4988 -5239 0
5001 -5239 0
-4983 -5239 5240 0
4983 -5240 0
5239 -5240 0
5240 5241 0
-5240 -5241 0
-4863 -5240 5242 0
4863 -5242 0
5240 -5242 0
5242 5243 0
-5242 -5243 0
-5062 -5243 5244 0
5062 -5244 0
5243 -5244 0
-5055 -5244 5245 0
5055 -5245 0
5244 -5245 0
-5238 -5245 5246 0
5238 -5246 0
5245 -5246 0
5246 5247 0
-5246 -5247 0
-5032 -5195 5248 0
5032 -5248 0
5195 -5248 0
5248 5249 0
-5248 -5249 0
-4853 -5129 5250 0
4853 -5250 0
5129 -5250 0
5250 5251 0
-5250 -5251 0
-4870 -4906 5252 0
4870 -5252 0
4906 -5252 0
5252 5253 0
-5252 -5253 0
-5251 -5253 5254 0
5251 -5254 0
5253 -5254 0
-4884 -5176 5255 0
4884 -5255 0
5176 -5255 0
5255 5256 0
-5255 -5256 0
-5174 -5256 5257 0
5174 -5257 0
5256 -5257 0
-5254 -5257 5258 0
5254 -5258 0
5257 -5258 0
5258 5259 0
-5258 -5259 0
-4869 -4906 5260 0
4869 -5260 0
4906 -5260 0
5260 5261 0
-5260 -5261 0
-4886 -4927 5262 0
4886 -5262 0
4927 -5262 0
5262 5263 0
-5262 -5263 0
-4952 -5263 5264 0
4952 -5264 0
5263 -5264 0
-5261 -5264 5265 0
5261 -5265 0
5264 -5265 0
5265 5266 0
-5265 -5266 0
-4868 -4916 5267 0
4868 -5267 0
4916 -5267 0
5267 5268 0
-5267 -5268 0
-5062 -5268 5269 0
5062 -5269 0
5268 -5269 0
-4855 -4971 5270 0
4855 -5270 0
4971 -5270 0
5270 5271 0
-5270 -5271 0
-4857 -4973 5272 0
4857 -5272 0
4973 -5272 0
5272 5273 0
-5272 -5273 0
-5271 -5273 5274 0
5271 -5274 0
5273 -5274 0
5274 5275 0
-5274 -5275 0
-5216 -5275 5276 0
5216 -5276 0
5275 -5276 0
-5043 -5276 5277 0
5043 -5277 0
5276 -5277 0
5277 5278 0
-5277 -5278 0
-5146 -5220 5279 0
5146 -5279 0
5220 -5279 0
-5278 -5279 5280 0
5278 -5280 0
5279 -5280 0
-5269 -5280 5281 0
5269 -5281 0
5280 -5281 0
5281 5282 0
-5281 -5282 0
-4850 -4925 5283 0
4850 -5283 0
4925 -5283 0
5283 5284 0
-5283 -5284 0
-5168 -5284 5285 0
5168 -5285 0
5284 -5285 0
5285 5286 0
-5285 -5286 0
-5169 -5286 5287 0
5169 -5287 0
5286 -5287 0
5287 5288 0
-5287 -5288 0
-5039 -5288 5289 0
5039 -5289 0
5288 -5289 0
-4889 -5030 5290 0
4889 -5290 0
5030 -5290 0
5290 5291 0
-5290 -5291 0
-4907 -5291 5292 0
4907 -5292 0
5291 -5292 0
-5032 -5292 5293 0
5032 -5293 0
5292 -5293 0
-5289 -5293 5294 0
5289 -5294 0
5293 -5294 0
5294 5295 0
-5294 -5295 0
-4907 -5186 5296 0
4907 -5296 0
5186 -5296 0
5296 5297 0
-5296 -5297 0
-4868 -5059 5298 0
4868 -5298 0
5059 -5298 0
-4890 -5298 5299 0
4890 -5299 0
5298 -5299 0
5299 5300 0
-5299 -5300 0
-4936 -5211 5301 0
4936 -5301 0
5211 -5301 0
5301 5302 0
-5301 -5302 0
-4930 -5302 5303 0
4930 -5303 0
5302 -5303 0
5303 5304 0
-5303 -5304 0
-4874 -5304 5305 0
4874 -5305 0
5304 -5305 0
5305 5306 0
-5305 -5306 0
-5300 -5306 5307 0
5300 -5307 0
5306 -5307 0
-4956 -5211 5308 0
4956 -5308 0
5211 -5308 0
5308 5309 0
-5308 -5309 0
-5077 -5309 5310 0
5077 -5310 0
5309 -5310 0
5310 5311 0
-5310 -5311 0
-4872 -5311 5312 0
4872 -5312 0
5311 -5312 0
5312 5313 0
-5312 -5313 0
-4921 -4912 5314 0
4921 -5314 0
4912 -5314 0
5314 5315 0
-5314 -5315 0
-5313 -5315 5316 0
5313 -5316 0
5315 -5316 0
-5032 -5316 5317 0
5032 -5317 0
5316 -5317 0
-5307 -5317 5318 0
5307 -5318 0
5317 -5318 0
5318 5319 0
-5318 -5319 0
-4884 -5117 5320 0
4884 -5320 0
5117 -5320 0
-4858 -4880 5321 0
4858 -5321 0
4880 -5321 0
-5320 -5321 5322 0
5320 -5322 0
5321 -5322 0
5322 5323 0
-5322 -5323 0
-4848 -4900 5324 0
4848 -5324 0
4900 -5324 0
5324 5325 0
-5324 -5325 0
-5323 -5325 5326 0
5323 -5326 0
5325 -5326 0
-4856 -4870 5327 0
4856 -5327 0
4870 -5327 0
5327 5328 0
-5327 -5328 0
-4873 -4884 5329 0
4873 -5329 0
4884 -5329 0
5329 5330 0
-5329 -5330 0
-5328 -5330 5331 0
5328 -5331 0
5330 -5331 0
5331 5332 0
-5331 -5332 0
-5118 -5332 5333 0
5118 -5333 0
5332 -5333 0
5333 5334 0
-5333 -5334 0
-5315 -5334 5335 0
5315 -5335 0
5334 -5335 0
-4956 -5215 5336 0
4956 -5336 0
5215 -5336 0
-4882 -5336 5337 0
4882 -5337 0
5336 -5337 0
5337 5338 0
-5337 -5338 0
-5032 -5338 5339 0
5032 -5339 0
5338 -5339 0
-5335 -5339 5340 0
5335 -5340 0
5339 -5340 0
-5326 -5340 5341 0
5326 -5341 0
5340 -5341 0
5341 5342 0
-5341 -5342 0
-4850 -4921 5343 0
4850 -5343 0
4921 -5343 0
5343 5344 0
-5343 -5344 0
-4888 -4923 5345 0
4888 -5345 0
4923 -5345 0
-4861 -5345 5346 0
4861 -5346 0
5345 -5346 0
5346 5347 0
-5346 -5347 0
-5344 -5347 5348 0
5344 -5348 0
5347 -5348 0
5348 5349 0
-5348 -5349 0
-5027 -5349 5350 0
5027 -5350 0
5349 -5350 0
5350 5351 0
-5350 -5351 0
-5087 -5201 5352 0
5087 -5352 0
5201 -5352 0
5352 5353 0
-5352 -5353 0
-4877 -5353 5354 0
4877 -5354 0
5353 -5354 0
5354 5355 0
-5354 -5355 0
-5241 -5355 5356 0
5241 -5356 0
5355 -5356 0
-4870 -5147 5357 0
4870 -5357 0
5147 -5357 0
-5208 -5357 5358 0
5208 -5358 0
5357 -5358 0
5358 5359 0
-5358 -5359 0
-4935 -5138 5360 0
4935 -5360 0
5138 -5360 0
-5229 -5360 5361 0
5229 -5361 0
5360 -5361 0
-4880 -5361 5362 0
4880 -5362 0
5361 -5362 0
5362 5363 0
-5362 -5363 0
-5359 -5363 5364 0
5359 -5364 0
5363 -5364 0
-5220 -5278 5365 0
5220 -5365 0
5278 -5365 0
-5364 -5365 5366 0
5364 -5366 0
5365 -5366 0
-5356 -5366 5367 0
5356 -5367 0
5366 -5367 0
-5351 -5367 5368 0
5351 -5368 0
5367 -5368 0
5368 5369 0
-5368 -5369 0
-4882 -4870 5370 0
4882 -5370 0
4870 -5370 0
-4871 -4866 5371 0
4871 -5371 0
4866 -5371 0
-5370 -5371 5372 0
5370 -5372 0
5371 -5372 0
5372 5373 0
-5372 -5373 0
-4877 -4884 5374 0
4877 -5374 0
4884 -5374 0
-5043 -5374 5375 0
5043 -5375 0
5374 -5375 0
-4864 -5375 5376 0
4864 -5376 0
5375 -5376 0
5376 5377 0
-5376 -5377 0
-5373 -5377 5378 0
5373 -5378 0
5377 -5378 0
5378 5379 0
-5378 -5379 0
-4856 -5379 5380 0
4856 -5380 0
5379 -5380 0
-5216 -5380 5381 0
5216 -5381 0
5380 -5381 0
-4921 -5381 5382 0
4921 -5382 0
5381 -5382 0
5382 5383 0
-5382 -5383 0
-5008 -5088 5384 0
5008 -5384 0
5088 -5384 0
5384 5385 0
-5384 -5385 0
-5383 -5385 5386 0
5383 -5386 0
5385 -5386 0
-4884 -5360 5387 0
4884 -5387 0
5360 -5387 0
5387 5388 0
-5387 -5388 0
-5114 -5388 5389 0
5114 -5389 0
5388 -5389 0
5389 5390 0
-5389 -5390 0
-5120 -5390 5391 0
5120 -5391 0
5390 -5391 0
5391 5392 0
-5391 -5392 0
-5386 -5392 5393 0
5386 -5393 0
5392 -5393 0
5393 5394 0
-5393 -5394 0
-4879 -4894 5395 0
4879 -5395 0
4894 -5395 0
-4880 -5232 5396 0
4880 -5396 0
5232 -5396 0
5396 5397 0
-5396 -5397 0
-5151 -5357 5398 0
5151 -5398 0
5357 -5398 0
5398 5399 0
-5398 -5399 0
-5220 -5399 5400 0
5220 -5400 0
5399 -5400 0
-4862 -4906 5401 0
4862 -5401 0
4906 -5401 0
5401 5402 0
-5401 -5402 0
-5288 -5402 5403 0
5288 -5403 0
5402 -5403 0
5403 5404 0
-5403 -5404 0
-4859 -5404 5405 0
4859 -5405 0
5404 -5405 0
5405 5406 0
-5405 -5406 0
-5351 -5406 5407 0
5351 -5407 0
5406 -5407 0
-5400 -5407 5408 0
5400 -5408 0
5407 -5408 0
-5397 -5408 5409 0
5397 -5409 0
5408 -5409 0
5409 5410 0
-5409 -5410 0
-4859 -5185 5411 0
4859 -5411 0
5185 -5411 0
5411 5412 0
-5411 -5412 0
-5383 -5412 5413 0
5383 -5413 0
5412 -5413 0
-4881 -5232 5414 0
4881 -5414 0
5232 -5414 0
-4866 -5414 5415 0
4866 -5415 0
5414 -5415 0
5415 5416 0
-5415 -5416 0
-5385 -5416 5417 0
5385 -5417 0
5416 -5417 0
-5413 -5417 5418 0
5413 -5418 0
5417 -5418 0
5418 5419 0
-5418 -5419 0
-4879 -4867 5420 0
4879 -5420 0
4867 -5420 0
-4879 -4881 5421 0
4879 -5421 0
4881 -5421 0
-4851 -4888 5422 0
4851 -5422 0
4888 -5422 0
-5314 -5422 5423 0
5314 -5423 0
5422 -5423 0
-5141 -5374 5424 0
5141 -5424 0
5374 -5424 0
5424 5425 0
-5424 -5425 0
-5385 -5425 5426 0
5385 -5426 0
5425 -5426 0
5426 5427 0
-5426 -5427 0
-5428 5427 0
5428 -5427 0
-5429 5423 0
5429 -5423 0
-5430 5421 0
5430 -5421 0
-5431 5420 0
5431 -5420 0
-5432 5419 0
5432 -5419 0
-5433 5410 0
5433 -5410 0
-5434 5395 0
5434 -5395 0
-5435 5394 0
5435 -5394 0
-5436 5369 0
5436 -5369 0
-5437 5342 0
5437 -5342 0
-5438 5319 0
5438 -5319 0
-5439 5297 0
5439 -5297 0
-5440 5295 0
5440 -5295 0
-5441 5282 0
5441 -5282 0
-5442 4906 0
5442 -4906 0
-5443 5266 0
5443 -5266 0
-5444 5259 0
5444 -5259 0
-5445 4916 0
5445 -4916 0
-5446 5249 0
5446 -5249 0
-5447 5247 0
5447 -5247 0
-5448 5227 0
5448 -5227 0
-5449 5199 0
5449 -5199 0
-5450 5181 0
5450 -5181 0
-5451 5163 0
5451 -5163 0
-5452 5136 0
5452 -5136 0
-5453 5074 0
5453 -5074 0
-5454 5042 0
5454 -5042 0
-5455 5017 0
5455 -5017 0
-5456 4970 0
5456 -4970 0
5458 5474 0
-5458 -5474 0
5459 5475 0
-5459 -5475 0
5460 5476 0
-5460 -5476 0
5461 5477 0
-5461 -5477 0
5462 5478 0
-5462 -5478 0
5464 5479 0
-5464 -5479 0
5466 5480 0
-5466 -5480 0
5467 5481 0
-5467 -5481 0
5468 5482 0
-5468 -5482 0
5469 5483 0
-5469 -5483 0
5470 5484 0
-5470 -5484 0
5471 5485 0
-5471 -5485 0
5472 5486 0
-5472 -5486 0
5473 5487 0
-5473 -5487 0
5456 5488 0
-5456 -5488 0
5455 5489 0
-5455 -5489 0
5454 5490 0
-5454 -5490 0
5453 5491 0
-5453 -5491 0
5452 5492 0
-5452 -5492 0
5451 5493 0
-5451 -5493 0
-5456 -5490 5494 0
5456 -5494 0
5490 -5494 0
-5491 -5494 5495 0
5491 -5495 0
5494 -5495 0
-5483 -5484 5496 0
5483 -5496 0
5484 -5496 0
5496 5497 0
-5496 -5497 0
-5489 -5497 5498 0
5489 -5498 0
5497 -5498 0
-5495 -5498 5499 0
5495 -5499 0
5498 -5499 0
-5451 -5499 5500 0
5451 -5500 0
5499 -5500 0
5500 5501 0
-5500 -5501 0
-5489 -5495 5502 0
5489 -5502 0
5495 -5502 0
-5476 -5502 5503 0
5476 -5503 0
5502 -5503 0
-5474 -5503 5504 0
5474 -5504 0
5503 -5504 0
5504 5505 0
-5504 -5505 0
-5501 -5505 5506 0
5501 -5506 0
5505 -5506 0
-5492 -5495 5507 0
5492 -5507 0
5495 -5507 0
-5455 -5493 5508 0
5455 -5508 0
5493 -5508 0
-5507 -5508 5509 0
5507 -5509 0
5508 -5509 0
5509 5510 0
-5509 -5510 0
-5485 -5486 5511 0
5485 -5511 0
5486 -5511 0
5511 5512 0
-5511 -5512 0
-5463 -5490 5513 0
5463 -5513 0
5490 -5513 0
5513 5514 0
-5513 -5514 0
-5488 -5489 5515 0
5488 -5515 0
5489 -5515 0
-5453 -5493 5516 0
5453 -5516 0
5493 -5516 0
-5515 -5516 5517 0
5515 -5517 0
5516 -5517 0
-5492 -5517 5518 0
5492 -5518 0
5517 -5518 0
-5513 -5518 5519 0
5513 -5519 0
5518 -5519 0
-5512 -5519 5520 0
5512 -5520 0
5519 -5520 0
5520 5521 0
-5520 -5521 0
-5510 -5521 5522 0
5510 -5522 0
5521 -5522 0
-5506 -5522 5523 0
5506 -5523 0
5522 -5523 0
-5492 -5493 5524 0
5492 -5524 0
5493 -5524 0
5524 5525 0
-5524 -5525 0
-5452 -5451 5526 0
5452 -5526 0
5451 -5526 0
5526 5527 0
-5526 -5527 0
-5525 -5527 5528 0
5525 -5528 0
5527 -5528 0
-5453 -5494 5529 0
5453 -5529 0
5494 -5529 0
-5528 -5529 5530 0
5528 -5530 0
5529 -5530 0
5530 5531 0
-5530 -5531 0
-5471 -5507 5532 0
5471 -5532 0
5507 -5532 0
5532 5533 0
-5532 -5533 0
-5493 -5532 5534 0
5493 -5534 0
5532 -5534 0
5534 5535 0
-5534 -5535 0
-5531 -5535 5536 0
5531 -5536 0
5535 -5536 0
-5460 -5461 5537 0
5460 -5537 0
5461 -5537 0
5537 5538 0
-5537 -5538 0
-5487 -5507 5539 0
5487 -5539 0
5507 -5539 0
5539 5540 0
-5539 -5540 0
-5492 -5451 5541 0
5492 -5541 0
5451 -5541 0
-5494 -5541 5542 0
5494 -5542 0
5541 -5542 0
5542 5543 0
-5542 -5543 0
-5540 -5543 5544 0
5540 -5544 0
5543 -5544 0
5544 5545 0
-5544 -5545 0
-5538 -5545 5546 0
5538 -5546 0
5545 -5546 0
5546 5547 0
-5546 -5547 0
-5471 -5499 5548 0
5471 -5548 0
5499 -5548 0
5548 5549 0
-5548 -5549 0
-5547 -5549 5550 0
5547 -5550 0
5549 -5550 0
-5485 -5489 5551 0
5485 -5551 0
5489 -5551 0
5551 5552 0
-5551 -5552 0
-5528 -5551 5553 0
5528 -5553 0
5551 -5553 0
-5494 -5553 5554 0
5494 -5554 0
5553 -5554 0
5554 5555 0
-5554 -5555 0
-5458 -5459 5556 0
5458 -5556 0
5459 -5556 0
5556 5557 0
-5556 -5557 0
-5493 -5495 5558 0
5493 -5558 0
5495 -5558 0
-5473 -5558 5559 0
5473 -5559 0
5558 -5559 0
5559 5560 0
-5559 -5560 0
-5452 -5493 5561 0
5452 -5561 0
5493 -5561 0
-5490 -5561 5562 0
5490 -5562 0
5561 -5562 0
-5456 -5562 5563 0
5456 -5563 0
5562 -5563 0
5563 5564 0
-5563 -5564 0
-5560 -5564 5565 0
5560 -5565 0
5564 -5565 0
5565 5566 0
-5565 -5566 0
-5557 -5566 5567 0
5557 -5567 0
5566 -5567 0
5567 5568 0
-5567 -5568 0
-5555 -5568 5569 0
5555 -5569 0
5568 -5569 0
-5550 -5569 5570 0
5550 -5570 0
5569 -5570 0
-5536 -5570 5571 0
5536 -5571 0
5570 -5571 0
-5523 -5571 5572 0
5523 -5572 0
5571 -5572 0
5572 5573 0
-5572 -5573 0
-5475 -5561 5574 0
5475 -5574 0
5561 -5574 0
5574 5575 0
-5574 -5575 0
-5477 -5541 5576 0
5477 -5576 0
5541 -5576 0
5576 5577 0
-5576 -5577 0
-5575 -5577 5578 0
5575 -5578 0
5577 -5578 0
5578 5579 0
-5578 -5579 0
-5494 -5579 5580 0
5494 -5580 0
5579 -5580 0
5580 5581 0
-5580 -5581 0
-5531 -5581 5582 0
5531 -5582 0
5581 -5582 0
5582 5583 0
-5582 -5583 0
-5455 -5583 5584 0
5455 -5584 0
5583 -5584 0
5584 5585 0
-5584 -5585 0
-5460 -5477 5586 0
5460 -5586 0
5477 -5586 0
5586 5587 0
-5586 -5587 0
-5466 -5587 5588 0
5466 -5588 0
5587 -5588 0
5588 5589 0
-5588 -5589 0
-5489 -5496 5590 0
5489 -5590 0
5496 -5590 0
-5532 -5590 5591 0
5532 -5591 0
5590 -5591 0
-5493 -5591 5592 0
5493 -5592 0
5591 -5592 0
-5459 -5592 5593 0
5459 -5593 0
5592 -5593 0
5593 5594 0
-5593 -5594 0
-5589 -5593 5595 0
5589 -5595 0
5593 -5595 0
-5473 -5595 5596 0
5473 -5596 0
5595 -5596 0
5596 5597 0
-5596 -5597 0
-5585 -5597 5598 0
5585 -5598 0
5597 -5598 0
-5478 -5509 5599 0
5478 -5599 0
5509 -5599 0
5599 5600 0
-5599 -5600 0
-5458 -5475 5601 0
5458 -5601 0
5475 -5601 0
5601 5602 0
-5601 -5602 0
-5467 -5602 5603 0
5467 -5603 0
5602 -5603 0
5603 5604 0
-5603 -5604 0
-5592 -5604 5605 0
5592 -5605 0
5604 -5605 0
-5486 -5487 5606 0
5486 -5606 0
5487 -5606 0
5606 5607 0
-5606 -5607 0
-5472 -5473 5608 0
5472 -5608 0
5473 -5608 0
5608 5609 0
-5608 -5609 0
-5607 -5609 5610 0
5607 -5610 0
5609 -5610 0
5610 5611 0
-5610 -5611 0
-5461 -5610 5612 0
5461 -5612 0
5610 -5612 0
5612 5613 0
-5612 -5613 0
-5588 -5613 5614 0
5588 -5614 0
5613 -5614 0
5614 5615 0
-5614 -5615 0
-5605 -5615 5616 0
5605 -5616 0
5615 -5616 0
5616 5617 0
-5616 -5617 0
-5600 -5617 5618 0
5600 -5618 0
5617 -5618 0
-5598 -5618 5619 0
5598 -5619 0
5618 -5619 0
5619 5620 0
-5619 -5620 0
-5493 -5496 5621 0
5493 -5621 0
5496 -5621 0
-5537 -5621 5622 0
5537 -5622 0
5621 -5622 0
5622 5623 0
-5622 -5623 0
-5490 -5623 5624 0
5490 -5624 0
5623 -5624 0
5624 5625 0
-5624 -5625 0
-5492 -5625 5626 0
5492 -5626 0
5625 -5626 0
-5515 -5626 5627 0
5515 -5627 0
5626 -5627 0
-5491 -5627 5628 0
5491 -5628 0
5627 -5628 0
5628 5629 0
-5628 -5629 0
-5454 -5515 5630 0
5454 -5630 0
5515 -5630 0
-5541 -5630 5631 0
5541 -5631 0
5630 -5631 0
5631 5632 0
-5631 -5632 0
-5491 -5630 5633 0
5491 -5633 0
5630 -5633 0
-5451 -5633 5634 0
5451 -5634 0
5633 -5634 0
5634 5635 0
-5634 -5635 0
-5479 -5634 5636 0
5479 -5636 0
5634 -5636 0
5636 5637 0
-5636 -5637 0
-5632 -5637 5638 0
5632 -5638 0
5637 -5638 0
-5452 -5517 5639 0
5452 -5639 0
5517 -5639 0
5639 5640 0
-5639 -5640 0
-5454 -5639 5641 0
5454 -5641 0
5639 -5641 0
5641 5642 0
-5641 -5642 0
-5638 -5642 5643 0
5638 -5643 0
5642 -5643 0
-5629 -5643 5644 0
5629 -5644 0
5643 -5644 0
5644 5645 0
-5644 -5645 0
-5483 -5471 5646 0
5483 -5646 0
5471 -5646 0
-5484 -5646 5647 0
5484 -5647 0
5646 -5647 0
5647 5648 0
-5647 -5648 0
-5489 -5648 5649 0
5489 -5649 0
5648 -5649 0
5649 5650 0
-5649 -5650 0
-5452 -5650 5651 0
5452 -5651 0
5650 -5651 0
-5558 -5651 5652 0
5558 -5652 0
5651 -5652 0
-5601 -5652 5653 0
5601 -5653 0
5652 -5653 0
5653 5654 0
-5653 -5654 0
-5451 -5650 5655 0
5451 -5655 0
5650 -5655 0
-5507 -5655 5656 0
5507 -5656 0
5655 -5656 0
-5586 -5656 5657 0
5586 -5657 0
5656 -5657 0
5657 5658 0
-5657 -5658 0
-5654 -5658 5659 0
5654 -5659 0
5658 -5659 0
-5489 -5492 5660 0
5489 -5660 0
5492 -5660 0
-5490 -5491 5661 0
5490 -5661 0
5491 -5661 0
-5660 -5661 5662 0
5660 -5662 0
5661 -5662 0
-5488 -5622 5663 0
5488 -5663 0
5622 -5663 0
-5662 -5663 5664 0
5662 -5664 0
5663 -5664 0
5664 5665 0
-5664 -5665 0
-5517 -5514 5666 0
5517 -5666 0
5514 -5666 0
5666 5667 0
-5666 -5667 0
-5665 -5667 5668 0
5665 -5668 0
5667 -5668 0
-5452 -5634 5669 0
5452 -5669 0
5634 -5669 0
5669 5670 0
-5669 -5670 0
-5478 -5530 5671 0
5478 -5671 0
5530 -5671 0
5671 5672 0
-5671 -5672 0
-5670 -5672 5673 0
5670 -5673 0
5672 -5673 0
-5668 -5673 5674 0
5668 -5674 0
5673 -5674 0
-5659 -5674 5675 0
5659 -5675 0
5674 -5675 0
-5640 -5675 5676 0
5640 -5676 0
5675 -5676 0
5676 5677 0
-5676 -5677 0
-5461 -5466 5678 0
5461 -5678 0
5466 -5678 0
-5471 -5558 5679 0
5471 -5679 0
5558 -5679 0
5679 5680 0
-5679 -5680 0
-5458 -5679 5681 0
5458 -5681 0
5679 -5681 0
-5590 -5681 5682 0
5590 -5682 0
5681 -5682 0
-5492 -5682 5683 0
5492 -5683 0
5682 -5683 0
5683 5684 0
-5683 -5684 0
-5594 -5684 5685 0
5594 -5685 0
5684 -5685 0
5685 5686 0
-5685 -5686 0
-5678 -5686 5687 0
5678 -5687 0
5686 -5687 0
5687 5688 0
-5687 -5688 0
-5481 -5592 5689 0
5481 -5689 0
5592 -5689 0
5689 5690 0
-5689 -5690 0
-5678 -5689 5691 0
5678 -5691 0
5689 -5691 0
5691 5692 0
-5691 -5692 0
-5688 -5692 5693 0
5688 -5693 0
5692 -5693 0
-5478 -5485 5694 0
5478 -5694 0
5485 -5694 0
5694 5695 0
-5694 -5695 0
-5471 -5497 5696 0
5471 -5696 0
5497 -5696 0
5696 5697 0
-5696 -5697 0
-5695 -5697 5698 0
5695 -5698 0
5697 -5698 0
5698 5699 0
-5698 -5699 0
-5489 -5699 5700 0
5489 -5700 0
5699 -5700 0
5700 5701 0
-5700 -5701 0
-5491 -5701 5702 0
5491 -5702 0
5701 -5702 0
-5552 -5557 5703 0
5552 -5703 0
5557 -5703 0
5703 5704 0
-5703 -5704 0
-5702 -5704 5705 0
5702 -5705 0
5704 -5705 0
5705 5706 0
-5705 -5706 0
-5563 -5706 5707 0
5563 -5707 0
5706 -5707 0
5707 5708 0
-5707 -5708 0
-5476 -5461 5709 0
5476 -5709 0
5461 -5709 0
-5656 -5709 5710 0
5656 -5710 0
5709 -5710 0
5710 5711 0
-5710 -5711 0
-5708 -5711 5712 0
5708 -5712 0
5711 -5712 0
-5693 -5712 5713 0
5693 -5713 0
5712 -5713 0
-5487 -5586 5714 0
5487 -5714 0
5586 -5714 0
5714 5715 0
-5714 -5715 0
-5473 -5601 5716 0
5473 -5716 0
5601 -5716 0
5716 5717 0
-5716 -5717 0
-5715 -5717 5718 0
5715 -5718 0
5717 -5718 0
5718 5719 0
-5718 -5719 0
-5485 -5558 5720 0
5485 -5720 0
5558 -5720 0
-5484 -5720 5721 0
5484 -5721 0
5720 -5721 0
-5469 -5721 5722 0
5469 -5722 0
5721 -5722 0
-5660 -5722 5723 0
5660 -5723 0
5722 -5723 0
-5719 -5723 5724 0
5719 -5724 0
5723 -5724 0
5724 5725 0
-5724 -5725 0
-5478 -5641 5726 0
5478 -5726 0
5641 -5726 0
5726 5727 0
-5726 -5727 0
-5725 -5727 5728 0
5725 -5728 0
5727 -5728 0
-5452 -5500 5729 0
5452 -5729 0
5500 -5729 0
5729 5730 0
-5729 -5730 0
-5489 -5562 5731 0
5489 -5731 0
5562 -5731 0
-5453 -5731 5732 0
5453 -5732 0
5731 -5732 0
-5557 -5732 5733 0
5557 -5733 0
5732 -5733 0
5733 5734 0
-5733 -5734 0
-5730 -5734 5735 0
5730 -5735 0
5734 -5735 0
-5728 -5735 5736 0
5728 -5736 0
5735 -5736 0
-5635 -5736 5737 0
5635 -5737 0
5736 -5737 0
-5713 -5737 5738 0
5713 -5738 0
5737 -5738 0
5738 5739 0
-5738 -5739 0
-5476 -5477 5740 0
5476 -5740 0
5477 -5740 0
5740 5741 0
-5740 -5741 0
-5466 -5740 5742 0
5466 -5742 0
5740 -5742 0
5742 5743 0
-5742 -5743 0
-5467 -5593 5744 0
5467 -5744 0
5593 -5744 0
-5743 -5744 5745 0
5743 -5745 0
5744 -5745 0
5745 5746 0
-5745 -5746 0
-5730 -5746 5747 0
5730 -5747 0
5746 -5747 0
-5660 -5720 5748 0
5660 -5748 0
5720 -5748 0
5748 5749 0
-5748 -5749 0
-5483 -5748 5750 0
5483 -5750 0
5748 -5750 0
-5719 -5750 5751 0
5719 -5751 0
5750 -5751 0
5751 5752 0
-5751 -5752 0
-5629 -5752 5753 0
5629 -5753 0
5752 -5753 0
-5474 -5459 5754 0
5474 -5754 0
5459 -5754 0
-5652 -5754 5755 0
5652 -5755 0
5754 -5755 0
5755 5756 0
-5755 -5756 0
-5538 -5552 5757 0
5538 -5757 0
5552 -5757 0
5757 5758 0
-5757 -5758 0
-5702 -5758 5759 0
5702 -5759 0
5758 -5759 0
5759 5760 0
-5759 -5760 0
-5542 -5760 5761 0
5542 -5761 0
5760 -5761 0
5761 5762 0
-5761 -5762 0
-5756 -5762 5763 0
5756 -5763 0
5762 -5763 0
-5753 -5763 5764 0
5753 -5764 0
5763 -5764 0
-5747 -5764 5765 0
5747 -5765 0
5764 -5765 0
5765 5766 0
-5765 -5766 0
-5529 -5561 5767 0
5529 -5767 0
5561 -5767 0
5767 5768 0
-5767 -5768 0
-5510 -5768 5769 0
5510 -5769 0
5768 -5769 0
-5485 -5541 5770 0
5485 -5770 0
5541 -5770 0
5770 5771 0
-5770 -5771 0
-5489 -5494 5772 0
5489 -5772 0
5494 -5772 0
-5770 -5772 5773 0
5770 -5773 0
5772 -5773 0
5773 5774 0
-5773 -5774 0
-5473 -5491 5775 0
5473 -5775 0
5491 -5775 0
-5773 -5775 5776 0
5773 -5776 0
5775 -5776 0
5776 5777 0
-5776 -5777 0
-5485 -5456 5778 0
5485 -5778 0
5456 -5778 0
-5731 -5778 5779 0
5731 -5779 0
5778 -5779 0
-5473 -5779 5780 0
5473 -5780 0
5779 -5780 0
5780 5781 0
-5780 -5781 0
-5777 -5781 5782 0
5777 -5782 0
5781 -5782 0
-5769 -5782 5783 0
5769 -5783 0
5782 -5783 0
5783 5784 0
-5783 -5784 0
-5529 -5541 5785 0
5529 -5785 0
5541 -5785 0
5785 5786 0
-5785 -5786 0
-5510 -5786 5787 0
5510 -5787 0
5786 -5787 0
-5491 -5779 5788 0
5491 -5788 0
5779 -5788 0
5788 5789 0
-5788 -5789 0
-5774 -5789 5790 0
5774 -5790 0
5789 -5790 0
5790 5791 0
-5790 -5791 0
-5487 -5791 5792 0
5487 -5792 0
5791 -5792 0
5792 5793 0
-5792 -5793 0
-5491 -5452 5794 0
5491 -5794 0
5452 -5794 0
5794 5795 0
-5794 -5795 0
-5493 -5795 5796 0
5493 -5796 0
5795 -5796 0
-5630 -5796 5797 0
5630 -5797 0
5796 -5797 0
5797 5798 0
-5797 -5798 0
-5793 -5798 5799 0
5793 -5799 0
5798 -5799 0
-5635 -5799 5800 0
5635 -5800 0
5799 -5800 0
-5787 -5800 5801 0
5787 -5801 0
5800 -5801 0
5801 5802 0
-5801 -5802 0
-5475 -5682 5803 0
5475 -5803 0
5682 -5803 0
5803 5804 0
-5803 -5804 0
-5589 -5803 5805 0
5589 -5805 0
5803 -5805 0
-5467 -5805 5806 0
5467 -5806 0
5805 -5806 0
5806 5807 0
-5806 -5807 0
-5654 -5807 5808 0
5654 -5808 0
5807 -5808 0
-5474 -5475 5809 0
5474 -5809 0
5475 -5809 0
5809 5810 0
-5809 -5810 0
-5557 -5810 5811 0
5557 -5811 0
5810 -5811 0
-5748 -5811 5812 0
5748 -5812 0
5811 -5812 0
-5469 -5470 5813 0
5469 -5813 0
5470 -5813 0
5813 5814 0
-5813 -5814 0
-5473 -5814 5815 0
5473 -5815 0
5814 -5815 0
-5812 -5815 5816 0
5812 -5816 0
5815 -5816 0
5816 5817 0
-5816 -5817 0
-5474 -5483 5818 0
5474 -5818 0
5483 -5818 0
-5484 -5502 5819 0
5484 -5819 0
5502 -5819 0
-5476 -5819 5820 0
5476 -5820 0
5819 -5820 0
-5526 -5820 5821 0
5526 -5821 0
5820 -5821 0
-5818 -5821 5822 0
5818 -5822 0
5821 -5822 0
5822 5823 0
-5822 -5823 0
-5817 -5823 5824 0
5817 -5824 0
5823 -5824 0
-5808 -5824 5825 0
5808 -5825 0
5824 -5825 0
-5556 -5639 5826 0
5556 -5826 0
5639 -5826 0
-5490 -5826 5827 0
5490 -5827 0
5826 -5827 0
5827 5828 0
-5827 -5828 0
-5825 -5828 5829 0
5825 -5829 0
5828 -5829 0
5829 5830 0
-5829 -5830 0
-5493 -5551 5831 0
5493 -5831 0
5551 -5831 0
-5539 -5831 5832 0
5539 -5832 0
5831 -5832 0
-5586 -5832 5833 0
5586 -5833 0
5832 -5833 0
5833 5834 0
-5833 -5834 0
-5709 -5832 5835 0
5709 -5835 0
5832 -5835 0
5835 5836 0
-5835 -5836 0
-5834 -5836 5837 0
5834 -5837 0
5836 -5837 0
5837 5838 0
-5837 -5838 0
-5814 -5838 5839 0
5814 -5839 0
5838 -5839 0
5839 5840 0
-5839 -5840 0
-5823 -5840 5841 0
5823 -5841 0
5840 -5841 0
-5591 -5604 5842 0
5591 -5842 0
5604 -5842 0
-5586 -5842 5843 0
5586 -5843 0
5842 -5843 0
5843 5844 0
-5843 -5844 0
-5466 -5843 5845 0
5466 -5845 0
5843 -5845 0
5845 5846 0
-5845 -5846 0
-5665 -5846 5847 0
5665 -5847 0
5846 -5847 0
-5658 -5847 5848 0
5658 -5848 0
5847 -5848 0
-5841 -5848 5849 0
5841 -5849 0
5848 -5849 0
5849 5850 0
-5849 -5850 0
-5635 -5798 5851 0
5635 -5851 0
5798 -5851 0
5851 5852 0
-5851 -5852 0
-5456 -5732 5853 0
5456 -5853 0
5732 -5853 0
5853 5854 0
-5853 -5854 0
-5473 -5509 5855 0
5473 -5855 0
5509 -5855 0
5855 5856 0
-5855 -5856 0
-5854 -5856 5857 0
5854 -5857 0
5856 -5857 0
-5487 -5779 5858 0
5487 -5858 0
5779 -5858 0
5858 5859 0
-5858 -5859 0
-5777 -5859 5860 0
5777 -5860 0
5859 -5860 0
-5857 -5860 5861 0
5857 -5861 0
5860 -5861 0
5861 5862 0
-5861 -5862 0
-5472 -5509 5863 0
5472 -5863 0
5509 -5863 0
5863 5864 0
-5863 -5864 0
-5489 -5530 5865 0
5489 -5865 0
5530 -5865 0
5865 5866 0
-5865 -5866 0
-5555 -5866 5867 0
5555 -5867 0
5866 -5867 0
-5864 -5867 5868 0
5864 -5868 0
5867 -5868 0
5868 5869 0
-5868 -5869 0
-5471 -5519 5870 0
5471 -5870 0
5519 -5870 0
5870 5871 0
-5870 -5871 0
-5665 -5871 5872 0
5665 -5872 0
5871 -5872 0
-5458 -5574 5873 0
5458 -5873 0
5574 -5873 0
5873 5874 0
-5873 -5874 0
-5460 -5576 5875 0
5460 -5875 0
5576 -5875 0
5875 5876 0
-5875 -5876 0
-5874 -5876 5877 0
5874 -5877 0
5876 -5877 0
5877 5878 0
-5877 -5878 0
-5819 -5878 5879 0
5819 -5879 0
5878 -5879 0
-5646 -5879 5880 0
5646 -5880 0
5879 -5880 0
5880 5881 0
-5880 -5881 0
-5749 -5823 5882 0
5749 -5882 0
5823 -5882 0
-5881 -5882 5883 0
5881 -5883 0
5882 -5883 0
-5872 -5883 5884 0
5872 -5884 0
5883 -5884 0
5884 5885 0
-5884 -5885 0
-5453 -5528 5886 0
5453 -5886 0
5528 -5886 0
5886 5887 0
-5886 -5887 0
-5771 -5887 5888 0
5771 -5888 0
5887 -5888 0
5888 5889 0
-5888 -5889 0
-5772 -5889 5890 0
5772 -5890 0
5889 -5890 0
5890 5891 0
-5890 -5891 0
-5642 -5891 5892 0
5642 -5892 0
5891 -5892 0
-5492 -5633 5893 0
5492 -5893 0
5633 -5893 0
5893 5894 0
-5893 -5894 0
-5510 -5894 5895 0
5510 -5895 0
5894 -5895 0
-5635 -5895 5896 0
5635 -5896 0
5895 -5896 0
-5892 -5896 5897 0
5892 -5897 0
5896 -5897 0
5897 5898 0
-5897 -5898 0
-5510 -5789 5899 0
5510 -5899 0
5789 -5899 0
5899 5900 0
-5899 -5900 0
-5471 -5662 5901 0
5471 -5901 0
5662 -5901 0
-5493 -5901 5902 0
5493 -5902 0
5901 -5902 0
5902 5903 0
-5902 -5903 0
-5539 -5814 5904 0
5539 -5904 0
5814 -5904 0
5904 5905 0
-5904 -5905 0
-5533 -5905 5906 0
5533 -5906 0
5905 -5906 0
5906 5907 0
-5906 -5907 0
-5477 -5907 5908 0
5477 -5908 0
5907 -5908 0
5908 5909 0
-5908 -5909 0
-5903 -5909 5910 0
5903 -5910 0
5909 -5910 0
-5559 -5814 5911 0
5559 -5911 0
5814 -5911 0
5911 5912 0
-5911 -5912 0
-5680 -5912 5913 0
5680 -5913 0
5912 -5913 0
5913 5914 0
-5913 -5914 0
-5475 -5914 5915 0
5475 -5915 0
5914 -5915 0
5915 5916 0
-5915 -5916 0
-5524 -5515 5917 0
5524 -5917 0
5515 -5917 0
5917 5918 0
-5917 -5918 0
-5916 -5918 5919 0
5916 -5919 0
5918 -5919 0
-5635 -5919 5920 0
5635 -5920 0
5919 -5920 0
-5910 -5920 5921 0
5910 -5921 0
5920 -5921 0
5921 5922 0
-5921 -5922 0
-5487 -5720 5923 0
5487 -5923 0
5720 -5923 0
-5461 -5483 5924 0
5461 -5924 0
5483 -5924 0
-5923 -5924 5925 0
5923 -5925 0
5924 -5925 0
5925 5926 0
-5925 -5926 0
-5451 -5503 5927 0
5451 -5927 0
5503 -5927 0
5927 5928 0
-5927 -5928 0
-5926 -5928 5929 0
5926 -5929 0
5928 -5929 0
-5459 -5473 5930 0
5459 -5930 0
5473 -5930 0
5930 5931 0
-5930 -5931 0
-5476 -5487 5932 0
5476 -5932 0
5487 -5932 0
5932 5933 0
-5932 -5933 0
-5931 -5933 5934 0
5931 -5934 0
5933 -5934 0
5934 5935 0
-5934 -5935 0
-5721 -5935 5936 0
5721 -5936 0
5935 -5936 0
5936 5937 0
-5936 -5937 0
-5918 -5937 5938 0
5918 -5938 0
5937 -5938 0
-5559 -5818 5939 0
5559 -5939 0
5818 -5939 0
-5485 -5939 5940 0
5485 -5940 0
5939 -5940 0
5940 5941 0
-5940 -5941 0
-5635 -5941 5942 0
5635 -5942 0
5941 -5942 0
-5938 -5942 5943 0
5938 -5943 0
5942 -5943 0
-5929 -5943 5944 0
5929 -5944 0
5943 -5944 0
5944 5945 0
-5944 -5945 0
-5453 -5524 5946 0
5453 -5946 0
5524 -5946 0
5946 5947 0
-5946 -5947 0
-5491 -5526 5948 0
5491 -5948 0
5526 -5948 0
-5464 -5948 5949 0
5464 -5949 0
5948 -5949 0
5949 5950 0
-5949 -5950 0
-5947 -5950 5951 0
5947 -5951 0
5950 -5951 0
5951 5952 0
-5951 -5952 0
-5630 -5952 5953 0
5630 -5953 0
5952 -5953 0
5953 5954 0
-5953 -5954 0
-5690 -5804 5955 0
5690 -5955 0
5804 -5955 0
5955 5956 0
-5955 -5956 0
-5480 -5956 5957 0
5480 -5957 0
5956 -5957 0
5957 5958 0
-5957 -5958 0
-5844 -5958 5959 0
5844 -5959 0
5958 -5959 0
-5473 -5750 5960 0
5473 -5960 0
5750 -5960 0
-5811 -5960 5961 0
5811 -5961 0
5960 -5961 0
5961 5962 0
-5961 -5962 0
-5538 -5741 5963 0
5538 -5963 0
5741 -5963 0
-5832 -5963 5964 0
5832 -5964 0
5963 -5964 0
-5483 -5964 5965 0
5483 -5965 0
5964 -5965 0
5965 5966 0
-5965 -5966 0
-5962 -5966 5967 0
5962 -5967 0
5966 -5967 0
-5823 -5881 5968 0
5823 -5968 0
5881 -5968 0
-5967 -5968 5969 0
5967 -5969 0
5968 -5969 0
-5959 -5969 5970 0
5959 -5970 0
5969 -5970 0
-5954 -5970 5971 0
5954 -5971 0
5970 -5971 0
5971 5972 0
-5971 -5972 0
-5485 -5473 5973 0
5485 -5973 0
5473 -5973 0
-5474 -5469 5974 0
5474 -5974 0
5469 -5974 0
-5973 -5974 5975 0
5973 -5975 0
5974 -5975 0
5975 5976 0
-5975 -5976 0
-5480 -5487 5977 0
5480 -5977 0
5487 -5977 0
-5646 -5977 5978 0
5646 -5978 0
5977 -5978 0
-5467 -5978 5979 0
5467 -5979 0
5978 -5979 0
5979 5980 0
-5979 -5980 0
-5976 -5980 5981 0
5976 -5981 0
5980 -5981 0
5981 5982 0
-5981 -5982 0
-5459 -5982 5983 0
5459 -5983 0
5982 -5983 0
-5819 -5983 5984 0
5819 -5984 0
5983 -5984 0
-5524 -5984 5985 0
5524 -5985 0
5984 -5985 0
5985 5986 0
-5985 -5986 0
-5611 -5691 5987 0
5611 -5987 0
5691 -5987 0
5987 5988 0
-5987 -5988 0
-5986 -5988 5989 0
5986 -5989 0
5988 -5989 0
-5487 -5963 5990 0
5487 -5990 0
5963 -5990 0
5990 5991 0
-5990 -5991 0
-5717 -5991 5992 0
5717 -5992 0
5991 -5992 0
5992 5993 0
-5992 -5993 0
-5723 -5993 5994 0
5723 -5994 0
5993 -5994 0
5994 5995 0
-5994 -5995 0
-5989 -5995 5996 0
5989 -5996 0
5995 -5996 0
5996 5997 0
-5996 -5997 0
-5482 -5497 5998 0
5482 -5998 0
5497 -5998 0
-5483 -5835 5999 0
5483 -5999 0
5835 -5999 0
5999 6000 0
-5999 -6000 0
-5754 -5960 6001 0
5754 -6001 0
5960 -6001 0
6001 6002 0
-6001 -6002 0
-5823 -6002 6003 0
5823 -6003 0
6002 -6003 0
-5465 -5509 6004 0
5465 -6004 0
5509 -6004 0
6004 6005 0
-6004 -6005 0
-5891 -6005 6006 0
5891 -6006 0
6005 -6006 0
6006 6007 0
-6006 -6007 0
-5462 -6007 6008 0
5462 -6008 0
6007 -6008 0
6008 6009 0
-6008 -6009 0
-5954 -6009 6010 0
5954 -6010 0
6009 -6010 0
-6003 -6010 6011 0
6003 -6011 0
6010 -6011 0
-6000 -6011 6012 0
6000 -6012 0
6011 -6012 0
6012 6013 0
-6012 -6013 0
-5462 -5788 6014 0
5462 -6014 0
5788 -6014 0
6014 6015 0
-6014 -6015 0
-5986 -6015 6016 0
5986 -6016 0
6015 -6016 0
-5484 -5835 6017 0
5484 -6017 0
5835 -6017 0
-5469 -6017 6018 0
5469 -6018 0
6017 -6018 0
6018 6019 0
-6018 -6019 0
-5988 -6019 6020 0
5988 -6020 0
6019 -6020 0
-6016 -6020 6021 0
6016 -6021 0
6020 -6021 0
6021 6022 0
-6021 -6022 0
-5482 -5470 6023 0
5482 -6023 0
5470 -6023 0
-5482 -5484 6024 0
5482 -6024 0
5484 -6024 0
-5454 -5491 6025 0
5454 -6025 0
5491 -6025 0
-5917 -6025 6026 0
5917 -6026 0
6025 -6026 0
-5744 -5977 6027 0
5744 -6027 0
5977 -6027 0
6027 6028 0
-6027 -6028 0
-5988 -6028 6029 0
5988 -6029 0
6028 -6029 0
6029 6030 0
-6029 -6030 0
-6031 6030 0
6031 -6030 0
-6032 6026 0
6032 -6026 0
-6033 6024 0
6033 -6024 0
-6034 6023 0
6034 -6023 0
-6035 6022 0
6035 -6022 0
-6036 6013 0
6036 -6013 0
-6037 5998 0
6037 -5998 0
-6038 5997 0
6038 -5997 0
-6039 5972 0
6039 -5972 0
-6040 5945 0
6040 -5945 0
-6041 5922 0
6041 -5922 0
-6042 5900 0
6042 -5900 0
-6043 5898 0
6043 -5898 0
-6044 5885 0
6044 -5885 0
-6045 5509 0
6045 -5509 0
-6046 5869 0
6046 -5869 0
-6047 5862 0
6047 -5862 0
-6048 5519 0
6048 -5519 0
-6049 5852 0
6049 -5852 0
-6050 5850 0
6050 -5850 0
-6051 5830 0
6051 -5830 0
-6052 5802 0
6052 -5802 0
-6053 5784 0
6053 -5784 0
-6054 5766 0
6054 -5766 0
-6055 5739 0
6055 -5739 0
-6056 5677 0
6056 -5677 0
-6057 5645 0
6057 -5645 0
-6058 5620 0
6058 -5620 0
-6059 5573 0
6059 -5573 0
6061 6077 0
-6061 -6077 0
6062 6078 0
-6062 -6078 0
6063 6079 0
-6063 -6079 0
6064 6080 0
-6064 -6080 0
6065 6081 0
-6065 -6081 0
6067 6082 0
-6067 -6082 0
6069 6083 0
-6069 -6083 0
6070 6084 0
-6070 -6084 0
6071 6085 0
-6071 -6085 0
6072 6086 0
-6072 -6086 0
6073 6087 0
-6073 -6087 0
6074 6088 0
-6074 -6088 0
6075 6089 0
-6075 -6089 0
6076 6090 0
-6076 -6090 0
6059 6091 0
-6059 -6091 0
6058 6092 0
-6058 -6092 0
6057 6093 0
-6057 -6093 0
6056 6094 0
-6056 -6094 0
6055 6095 0
-6055 -6095 0
6054 6096 0
-6054 -6096 0
-6059 -6093 6097 0
6059 -6097 0
6093 -6097 0
-6094 -6097 6098 0
6094 -6098 0
6097 -6098 0
-6086 -6087 6099 0
6086 -6099 0
6087 -6099 0
6099 6100 0
-6099 -6100 0
-6092 -6100 6101 0
6092 -6101 0
6100 -6101 0
-6098 -6101 6102 0
6098 -6102 0
6101 -6102 0
-6054 -6102 6103 0
6054 -6103 0
6102 -6103 0
6103 6104 0
-6103 -6104 0
-6092 -6098 6105 0
6092 -6105 0
6098 -6105 0
-6079 -6105 6106 0
6079 -6106 0
6105 -6106 0
-6077 -6106 6107 0
6077 -6107 0
6106 -6107 0
6107 6108 0
-6107 -6108 0
-6104 -6108 6109 0
6104 -6109 0
6108 -6109 0
-6095 -6098 6110 0
6095 -6110 0
6098 -6110 0
-6058 -6096 6111 0
6058 -6111 0
6096 -6111 0
-6110 -6111 6112 0
6110 -6112 0
6111 -6112 0
6112 6113 0
-6112 -6113 0
-6088 -6089 6114 0
6088 -6114 0
6089 -6114 0
6114 6115 0
-6114 -6115 0
-6066 -6093 6116 0
6066 -6116 0
6093 -6116 0
6116 6117 0
-6116 -6117 0
-6091 -6092 6118 0
6091 -6118 0
6092 -6118 0
-6056 -6096 6119 0
6056 -6119 0
6096 -6119 0
-6118 -6119 6120 0
6118 -6120 0
6119 -6120 0
-6095 -6120 6121 0
6095 -6121 0
6120 -6121 0
-6116 -6121 6122 0
6116 -6122 0
6121 -6122 0
-6115 -6122 6123 0
6115 -6123 0
6122 -6123 0
6123 6124 0
-6123 -6124 0
-6113 -6124 6125 0
6113 -6125 0
6124 -6125 0
-6109 -6125 6126 0
6109 -6126 0
6125 -6126 0
-6095 -6096 6127 0
6095 -6127 0
6096 -6127 0
6127 6128 0
-6127 -6128 0
-6055 -6054 6129 0
6055 -6129 0
6054 -6129 0
6129 6130 0
-6129 -6130 0
-6128 -6130 6131 0
6128 -6131 0
6130 -6131 0
-6056 -6097 6132 0
6056 -6132 0
6097 -6132 0
-6131 -6132 6133 0
6131 -6133 0
6132 -6133 0
6133 6134 0
-6133 -6134 0
-6074 -6110 6135 0
6074 -6135 0
6110 -6135 0
6135 6136 0
-6135 -6136 0
-6096 -6135 6137 0
6096 -6137 0
6135 -6137 0
6137 6138 0
-6137 -6138 0
-6134 -6138 6139 0
6134 -6139 0
6138 -6139 0
-6063 -6064 6140 0
6063 -6140 0
6064 -6140 0
6140 6141 0
-6140 -6141 0
-6090 -6110 6142 0
6090 -6142 0
6110 -6142 0
6142 6143 0
-6142 -6143 0
-6095 -6054 6144 0
6095 -6144 0
6054 -6144 0
-6097 -6144 6145 0
6097 -6145 0
6144 -6145 0
6145 6146 0
-6145 -6146 0
-6143 -6146 6147 0
6143 -6147 0
6146 -6147 0
6147 6148 0
-6147 -6148 0
-6141 -6148 6149 0
6141 -6149 0
6148 -6149 0
6149 6150 0
-6149 -6150 0
-6074 -6102 6151 0
6074 -6151 0
6102 -6151 0
6151 6152 0
-6151 -6152 0
-6150 -6152 6153 0
6150 -6153 0
6152 -6153 0
-6088 -6092 6154 0
6088 -6154 0
6092 -6154 0
6154 6155 0
-6154 -6155 0
-6131 -6154 6156 0
6131 -6156 0
6154 -6156 0
-6097 -6156 6157 0
6097 -6157 0
6156 -6157 0
6157 6158 0
-6157 -6158 0
-6061 -6062 6159 0
6061 -6159 0
6062 -6159 0
6159 6160 0
-6159 -6160 0
-6096 -6098 6161 0
6096 -6161 0
6098 -6161 0
-6076 -6161 6162 0
6076 -6162 0
6161 -6162 0
6162 6163 0
-6162 -6163 0
-6055 -6096 6164 0
6055 -6164 0
6096 -6164 0
-6093 -6164 6165 0
6093 -6165 0
6164 -6165 0
-6059 -6165 6166 0
6059 -6166 0
6165 -6166 0
6166 6167 0
-6166 -6167 0
-6163 -6167 6168 0
6163 -6168 0
6167 -6168 0
6168 6169 0
-6168 -6169 0
-6160 -6169 6170 0
6160 -6170 0
6169 -6170 0
6170 6171 0
-6170 -6171 0
-6158 -6171 6172 0
6158 -6172 0
6171 -6172 0
-6153 -6172 6173 0
6153 -6173 0
6172 -6173 0
-6139 -6173 6174 0
6139 -6174 0
6173 -6174 0
-6126 -6174 6175 0
6126 -6175 0
6174 -6175 0
6175 6176 0
-6175 -6176 0
-6078 -6164 6177 0
6078 -6177 0
6164 -6177 0
6177 6178 0
-6177 -6178 0
-6080 -6144 6179 0
6080 -6179 0
6144 -6179 0
6179 6180 0
-6179 -6180 0
-6178 -6180 6181 0
6178 -6181 0
6180 -6181 0
6181 6182 0
-6181 -6182 0
-6097 -6182 6183 0
6097 -6183 0
6182 -6183 0
6183 6184 0
-6183 -6184 0
-6134 -6184 6185 0
6134 -6185 0
6184 -6185 0
6185 6186 0
-6185 -6186 0
-6058 -6186 6187 0
6058 -6187 0
6186 -6187 0
6187 6188 0
-6187 -6188 0
-6063 -6080 6189 0
6063 -6189 0
6080 -6189 0
6189 6190 0
-6189 -6190 0
-6069 -6190 6191 0
6069 -6191 0
6190 -6191 0
6191 6192 0
-6191 -6192 0
-6092 -6099 6193 0
6092 -6193 0
6099 -6193 0
-6135 -6193 6194 0
6135 -6194 0
6193 -6194 0
-6096 -6194 6195 0
6096 -6195 0
6194 -6195 0
-6062 -6195 6196 0
6062 -6196 0
6195 -6196 0
6196 6197 0
-6196 -6197 0
-6192 -6196 6198 0
6192 -6198 0
6196 -6198 0
-6076 -6198 6199 0
6076 -6199 0
6198 -6199 0
6199 6200 0
-6199 -6200 0
-6188 -6200 6201 0
6188 -6201 0
6200 -6201 0
-6081 -6112 6202 0
6081 -6202 0
6112 -6202 0
6202 6203 0
-6202 -6203 0
-6061 -6078 6204 0
6061 -6204 0
6078 -6204 0
6204 6205 0
-6204 -6205 0
-6070 -6205 6206 0
6070 -6206 0
6205 -6206 0
6206 6207 0
-6206 -6207 0
-6195 -6207 6208 0
6195 -6208 0
6207 -6208 0
-6089 -6090 6209 0
6089 -6209 0
6090 -6209 0
6209 6210 0
-6209 -6210 0
-6075 -6076 6211 0
6075 -6211 0
6076 -6211 0
6211 6212 0
-6211 -6212 0
-6210 -6212 6213 0
6210 -6213 0
6212 -6213 0
6213 6214 0
-6213 -6214 0
-6064 -6213 6215 0
6064 -6215 0
6213 -6215 0
6215 6216 0
-6215 -6216 0
-6191 -6216 6217 0
6191 -6217 0
6216 -6217 0
6217 6218 0
-6217 -6218 0
-6208 -6218 6219 0
6208 -6219 0
6218 -6219 0
6219 6220 0
-6219 -6220 0
-6203 -6220 6221 0
6203 -6221 0
6220 -6221 0
-6201 -6221 6222 0
6201 -6222 0
6221 -6222 0
6222 6223 0
-6222 -6223 0
-6096 -6099 6224 0
6096 -6224 0
6099 -6224 0
-6140 -6224 6225 0
6140 -6225 0
6224 -6225 0
6225 6226 0
-6225 -6226 0
-6093 -6226 6227 0
6093 -6227 0
6226 -6227 0
6227 6228 0
-6227 -6228 0
-6095 -6228 6229 0
6095 -6229 0
6228 -6229 0
-6118 -6229 6230 0
6118 -6230 0
6229 -6230 0
-6094 -6230 6231 0
6094 -6231 0
6230 -6231 0
6231 6232 0
-6231 -6232 0
-6057 -6118 6233 0
6057 -6233 0
6118 -6233 0
-6144 -6233 6234 0
6144 -6234 0
6233 -6234 0
6234 6235 0
-6234 -6235 0
-6094 -6233 6236 0
6094 -6236 0
6233 -6236 0
-6054 -6236 6237 0
6054 -6237 0
6236 -6237 0
6237 6238 0
-6237 -6238 0
-6082 -6237 6239 0
6082 -6239 0
6237 -6239 0
6239 6240 0
-6239 -6240 0
-6235 -6240 6241 0
6235 -6241 0
6240 -6241 0
-6055 -6120 6242 0
6055 -6242 0
6120 -6242 0
6242 6243 0
-6242 -6243 0
-6057 -6242 6244 0
6057 -6244 0
6242 -6244 0
6244 6245 0
-6244 -6245 0
-6241 -6245 6246 0
6241 -6246 0
6245 -6246 0
-6232 -6246 6247 0
6232 -6247 0
6246 -6247 0
6247 6248 0
-6247 -6248 0
-6086 -6074 6249 0
6086 -6249 0
6074 -6249 0
-6087 -6249 6250 0
6087 -6250 0
6249 -6250 0
6250 6251 0
-6250 -6251 0
-6092 -6251 6252 0
6092 -6252 0
6251 -6252 0
6252 6253 0
-6252 -6253 0
-6055 -6253 6254 0
6055 -6254 0
6253 -6254 0
-6161 -6254 6255 0
6161 -6255 0
6254 -6255 0
-6204 -6255 6256 0
6204 -6256 0
6255 -6256 0
6256 6257 0
-6256 -6257 0
-6054 -6253 6258 0
6054 -6258 0
6253 -6258 0
-6110 -6258 6259 0
6110 -6259 0
6258 -6259 0
-6189 -6259 6260 0
6189 -6260 0
6259 -6260 0
6260 6261 0
-6260 -6261 0
-6257 -6261 6262 0
6257 -6262 0
6261 -6262 0
-6092 -6095 6263 0
6092 -6263 0
6095 -6263 0
-6093 -6094 6264 0
6093 -6264 0
6094 -6264 0
-6263 -6264 6265 0
6263 -6265 0
6264 -6265 0
-6091 -6225 6266 0
6091 -6266 0
6225 -6266 0
-6265 -6266 6267 0
6265 -6267 0
6266 -6267 0
6267 6268 0
-6267 -6268 0
-6120 -6117 6269 0
6120 -6269 0
6117 -6269 0
6269 6270 0
-6269 -6270 0
-6268 -6270 6271 0
6268 -6271 0
6270 -6271 0
-6055 -6237 6272 0
6055 -6272 0
6237 -6272 0
6272 6273 0
-6272 -6273 0
-6081 -6133 6274 0
6081 -6274 0
6133 -6274 0
6274 6275 0
-6274 -6275 0
-6273 -6275 6276 0
6273 -6276 0
6275 -6276 0
-6271 -6276 6277 0
6271 -6277 0
6276 -6277 0
-6262 -6277 6278 0
6262 -6278 0
6277 -6278 0
-6243 -6278 6279 0
6243 -6279 0
6278 -6279 0
6279 6280 0
-6279 -6280 0
-6064 -6069 6281 0
6064 -6281 0
6069 -6281 0
-6074 -6161 6282 0
6074 -6282 0
6161 -6282 0
6282 6283 0
-6282 -6283 0
-6061 -6282 6284 0
6061 -6284 0
6282 -6284 0
-6193 -6284 6285 0
6193 -6285 0
6284 -6285 0
-6095 -6285 6286 0
6095 -6286 0
6285 -6286 0
6286 6287 0
-6286 -6287 0
-6197 -6287 6288 0
6197 -6288 0
6287 -6288 0
6288 6289 0
-6288 -6289 0
-6281 -6289 6290 0
6281 -6290 0
6289 -6290 0
6290 6291 0
-6290 -6291 0
-6084 -6195 6292 0
6084 -6292 0
6195 -6292 0
6292 6293 0
-6292 -6293 0
-6281 -6292 6294 0
6281 -6294 0
6292 -6294 0
6294 6295 0
-6294 -6295 0
-6291 -6295 6296 0
6291 -6296 0
6295 -6296 0
-6081 -6088 6297 0
6081 -6297 0
6088 -6297 0
6297 6298 0
-6297 -6298 0
-6074 -6100 6299 0
6074 -6299 0
6100 -6299 0
6299 6300 0
-6299 -6300 0
-6298 -6300 6301 0
6298 -6301 0
6300 -6301 0
6301 6302 0
-6301 -6302 0
-6092 -6302 6303 0
6092 -6303 0
6302 -6303 0
6303 6304 0
-6303 -6304 0
-6094 -6304 6305 0
6094 -6305 0
6304 -6305 0
-6155 -6160 6306 0
6155 -6306 0
6160 -6306 0
6306 6307 0
-6306 -6307 0
-6305 -6307 6308 0
6305 -6308 0
6307 -6308 0
6308 6309 0
-6308 -6309 0
-6166 -6309 6310 0
6166 -6310 0
6309 -6310 0
6310 6311 0
-6310 -6311 0
-6079 -6064 6312 0
6079 -6312 0
6064 -6312 0
-6259 -6312 6313 0
6259 -6313 0
6312 -6313 0
6313 6314 0
-6313 -6314 0
-6311 -6314 6315 0
6311 -6315 0
6314 -6315 0
-6296 -6315 6316 0
6296 -6316 0
6315 -6316 0
-6090 -6189 6317 0
6090 -6317 0
6189 -6317 0
6317 6318 0
-6317 -6318 0
-6076 -6204 6319 0
6076 -6319 0
6204 -6319 0
6319 6320 0
-6319 -6320 0
-6318 -6320 6321 0
6318 -6321 0
6320 -6321 0
6321 6322 0
-6321 -6322 0
-6088 -6161 6323 0
6088 -6323 0
6161 -6323 0
-6087 -6323 6324 0
6087 -6324 0
6323 -6324 0
-6072 -6324 6325 0
6072 -6325 0
6324 -6325 0
-6263 -6325 6326 0
6263 -6326 0
6325 -6326 0
-6322 -6326 6327 0
6322 -6327 0
6326 -6327 0
6327 6328 0
-6327 -6328 0
-6081 -6244 6329 0
6081 -6329 0
6244 -6329 0
6329 6330 0
-6329 -6330 0
-6328 -6330 6331 0
6328 -6331 0
6330 -6331 0
-6055 -6103 6332 0
6055 -6332 0
6103 -6332 0
6332 6333 0
-6332 -6333 0
-6092 -6165 6334 0
6092 -6334 0
6165 -6334 0
-6056 -6334 6335 0
6056 -6335 0
6334 -6335 0
-6160 -6335 6336 0
6160 -6336 0
6335 -6336 0
6336 6337 0
-6336 -6337 0
-6333 -6337 6338 0
6333 -6338 0
6337 -6338 0
-6331 -6338 6339 0
6331 -6339 0
6338 -6339 0
-6238 -6339 6340 0
6238 -6340 0
6339 -6340 0
-6316 -6340 6341 0
6316 -6341 0
6340 -6341 0
6341 6342 0
-6341 -6342 0
-6079 -6080 6343 0
6079 -6343 0
6080 -6343 0
6343 6344 0
-6343 -6344 0
-6069 -6343 6345 0
6069 -6345 0
6343 -6345 0
6345 6346 0
-6345 -6346 0
-6070 -6196 6347 0
6070 -6347 0
6196 -6347 0
-6346 -6347 6348 0
6346 -6348 0
6347 -6348 0
6348 6349 0
-6348 -6349 0
-6333 -6349 6350 0
6333 -6350 0
6349 -6350 0
-6263 -6323 6351 0
6263 -6351 0
6323 -6351 0
6351 6352 0
-6351 -6352 0
-6086 -6351 6353 0
6086 -6353 0
6351 -6353 0
-6322 -6353 6354 0
6322 -6354 0
6353 -6354 0
6354 6355 0
-6354 -6355 0
-6232 -6355 6356 0
6232 -6356 0
6355 -6356 0
-6077 -6062 6357 0
6077 -6357 0
6062 -6357 0
-6255 -6357 6358 0
6255 -6358 0
6357 -6358 0
6358 6359 0
-6358 -6359 0
-6141 -6155 6360 0
6141 -6360 0
6155 -6360 0
6360 6361 0
-6360 -6361 0
-6305 -6361 6362 0
6305 -6362 0
6361 -6362 0
6362 6363 0
-6362 -6363 0
-6145 -6363 6364 0
6145 -6364 0
6363 -6364 0
6364 6365 0
-6364 -6365 0
-6359 -6365 6366 0
6359 -6366 0
6365 -6366 0
-6356 -6366 6367 0
6356 -6367 0
6366 -6367 0
-6350 -6367 6368 0
6350 -6368 0
6367 -6368 0
6368 6369 0
-6368 -6369 0
-6132 -6164 6370 0
6132 -6370 0
6164 -6370 0
6370 6371 0
-6370 -6371 0
-6113 -6371 6372 0
6113 -6372 0
6371 -6372 0
-6088 -6144 6373 0
6088 -6373 0
6144 -6373 0
6373 6374 0
-6373 -6374 0
-6092 -6097 6375 0
6092 -6375 0
6097 -6375 0
-6373 -6375 6376 0
6373 -6376 0
6375 -6376 0
6376 6377 0
-6376 -6377 0
-6076 -6094 6378 0
6076 -6378 0
6094 -6378 0
-6376 -6378 6379 0
6376 -6379 0
6378 -6379 0
6379 6380 0
-6379 -6380 0
-6088 -6059 6381 0
6088 -6381 0
6059 -6381 0
-6334 -6381 6382 0
6334 -6382 0
6381 -6382 0
-6076 -6382 6383 0
6076 -6383 0
6382 -6383 0
6383 6384 0
-6383 -6384 0
-6380 -6384 6385 0
6380 -6385 0
6384 -6385 0
-6372 -6385 6386 0
6372 -6386 0
6385 -6386 0
6386 6387 0
-6386 -6387 0
-6132 -6144 6388 0
6132 -6388 0
6144 -6388 0
6388 6389 0
-6388 -6389 0
-6113 -6389 6390 0
6113 -6390 0
6389 -6390 0
-6094 -6382 6391 0
6094 -6391 0
6382 -6391 0
6391 6392 0
-6391 -6392 0
-6377 -6392 6393 0
6377 -6393 0
6392 -6393 0
6393 6394 0
-6393 -6394 0
-6090 -6394 6395 0
6090 -6395 0
6394 -6395 0
6395 6396 0
-6395 -6396 0
-6094 -6055 6397 0
6094 -6397 0
6055 -6397 0
6397 6398 0
-6397 -6398 0
-6096 -6398 6399 0
6096 -6399 0
6398 -6399 0
-6233 -6399 6400 0
6233 -6400 0
6399 -6400 0
6400 6401 0
-6400 -6401 0
-6396 -6401 6402 0
6396 -6402 0
6401 -6402 0
-6238 -6402 6403 0
6238 -6403 0
6402 -6403 0
-6390 -6403 6404 0
6390 -6404 0
6403 -6404 0
6404 6405 0
-6404 -6405 0
-6078 -6285 6406 0
6078 -6406 0
6285 -6406 0
6406 6407 0
-6406 -6407 0
-6192 -6406 6408 0
6192 -6408 0
6406 -6408 0
-6070 -6408 6409 0
6070 -6409 0
6408 -6409 0
6409 6410 0
-6409 -6410 0
-6257 -6410 6411 0
6257 -6411 0
6410 -6411 0
-6077 -6078 6412 0
6077 -6412 0
6078 -6412 0
6412 6413 0
-6412 -6413 0
-6160 -6413 6414 0
6160 -6414 0
6413 -6414 0
-6351 -6414 6415 0
6351 -6415 0
6414 -6415 0
-6072 -6073 6416 0
6072 -6416 0
6073 -6416 0
6416 6417 0
-6416 -6417 0
-6076 -6417 6418 0
6076 -6418 0
6417 -6418 0
-6415 -6418 6419 0
6415 -6419 0
6418 -6419 0
6419 6420 0
-6419 -6420 0
-6077 -6086 6421 0
6077 -6421 0
6086 -6421 0
-6087 -6105 6422 0
6087 -6422 0
6105 -6422 0
-6079 -6422 6423 0
6079 -6423 0
6422 -6423 0
-6129 -6423 6424 0
6129 -6424 0
6423 -6424 0
-6421 -6424 6425 0
6421 -6425 0
6424 -6425 0
6425 6426 0
-6425 -6426 0
-6420 -6426 6427 0
6420 -6427 0
6426 -6427 0
-6411 -6427 6428 0
6411 -6428 0
6427 -6428 0
-6159 -6242 6429 0
6159 -6429 0
6242 -6429 0
-6093 -6429 6430 0
6093 -6430 0
6429 -6430 0
6430 6431 0
-6430 -6431 0
-6428 -6431 6432 0
6428 -6432 0
6431 -6432 0
6432 6433 0
-6432 -6433 0
-6096 -6154 6434 0
6096 -6434 0
6154 -6434 0
-6142 -6434 6435 0
6142 -6435 0
6434 -6435 0
-6189 -6435 6436 0
6189 -6436 0
6435 -6436 0
6436 6437 0
-6436 -6437 0
-6312 -6435 6438 0
6312 -6438 0
6435 -6438 0
6438 6439 0
-6438 -6439 0
-6437 -6439 6440 0
6437 -6440 0
6439 -6440 0
6440 6441 0
-6440 -6441 0
-6417 -6441 6442 0
6417 -6442 0
6441 -6442 0
6442 6443 0
-6442 -6443 0
-6426 -6443 6444 0
6426 -6444 0
6443 -6444 0
-6194 -6207 6445 0
6194 -6445 0
6207 -6445 0
-6189 -6445 6446 0
6189 -6446 0
6445 -6446 0
6446 6447 0
-6446 -6447 0
-6069 -6446 6448 0
6069 -6448 0
6446 -6448 0
6448 6449 0
-6448 -6449 0
-6268 -6449 6450 0
6268 -6450 0
6449 -6450 0
-6261 -6450 6451 0
6261 -6451 0
6450 -6451 0
-6444 -6451 6452 0
6444 -6452 0
6451 -6452 0
6452 6453 0
-6452 -6453 0
-6238 -6401 6454 0
6238 -6454 0
6401 -6454 0
6454 6455 0
-6454 -6455 0
-6059 -6335 6456 0
6059 -6456 0
6335 -6456 0
6456 6457 0
-6456 -6457 0
-6076 -6112 6458 0
6076 -6458 0
6112 -6458 0
6458 6459 0
-6458 -6459 0
-6457 -6459 6460 0
6457 -6460 0
6459 -6460 0
-6090 -6382 6461 0
6090 -6461 0
6382 -6461 0
6461 6462 0
-6461 -6462 0
-6380 -6462 6463 0
6380 -6463 0
6462 -6463 0
-6460 -6463 6464 0
6460 -6464 0
6463 -6464 0
6464 6465 0
-6464 -6465 0
-6075 -6112 6466 0
6075 -6466 0
6112 -6466 0
6466 6467 0
-6466 -6467 0
-6092 -6133 6468 0
6092 -6468 0
6133 -6468 0
6468 6469 0
-6468 -6469 0
-6158 -6469 6470 0
6158 -6470 0
6469 -6470 0
-6467 -6470 6471 0
6467 -6471 0
6470 -6471 0
6471 6472 0
-6471 -6472 0
-6074 -6122 6473 0
6074 -6473 0
6122 -6473 0
6473 6474 0
-6473 -6474 0
-6268 -6474 6475 0
6268 -6475 0
6474 -6475 0
-6061 -6177 6476 0
6061 -6476 0
6177 -6476 0
6476 6477 0
-6476 -6477 0
-6063 -6179 6478 0
6063 -6478 0
6179 -6478 0
6478 6479 0
-6478 -6479 0
-6477 -6479 6480 0
6477 -6480 0
6479 -6480 0
6480 6481 0
-6480 -6481 0
-6422 -6481 6482 0
6422 -6482 0
6481 -6482 0
-6249 -6482 6483 0
6249 -6483 0
6482 -6483 0
6483 6484 0
-6483 -6484 0
-6352 -6426 6485 0
6352 -6485 0
6426 -6485 0
-6484 -6485 6486 0
6484 -6486 0
6485 -6486 0
-6475 -6486 6487 0
6475 -6487 0
6486 -6487 0
6487 6488 0
-6487 -6488 0
-6056 -6131 6489 0
6056 -6489 0
6131 -6489 0
6489 6490 0
-6489 -6490 0
-6374 -6490 6491 0
6374 -6491 0
6490 -6491 0
6491 6492 0
-6491 -6492 0
-6375 -6492 6493 0
6375 -6493 0
6492 -6493 0
6493 6494 0
-6493 -6494 0
-6245 -6494 6495 0
6245 -6495 0
6494 -6495 0
-6095 -6236 6496 0
6095 -6496 0
6236 -6496 0
6496 6497 0
-6496 -6497 0
-6113 -6497 6498 0
6113 -6498 0
6497 -6498 0
-6238 -6498 6499 0
6238 -6499 0
6498 -6499 0
-6495 -6499 6500 0
6495 -6500 0
6499 -6500 0
6500 6501 0
-6500 -6501 0
-6113 -6392 6502 0
6113 -6502 0
6392 -6502 0
6502 6503 0
-6502 -6503 0
-6074 -6265 6504 0
6074 -6504 0
6265 -6504 0
-6096 -6504 6505 0
6096 -6505 0
6504 -6505 0
6505 6506 0
-6505 -6506 0
-6142 -6417 6507 0
6142 -6507 0
6417 -6507 0
6507 6508 0
-6507 -6508 0
-6136 -6508 6509 0
6136 -6509 0
6508 -6509 0
6509 6510 0
-6509 -6510 0
-6080 -6510 6511 0
6080 -6511 0
6510 -6511 0
6511 6512 0
-6511 -6512 0
-6506 -6512 6513 0
6506 -6513 0
6512 -6513 0
-6162 -6417 6514 0
6162 -6514 0
6417 -6514 0
6514 6515 0
-6514 -6515 0
-6283 -6515 6516 0
6283 -6516 0
6515 -6516 0
6516 6517 0
-6516 -6517 0
-6078 -6517 6518 0
6078 -6518 0
6517 -6518 0
6518 6519 0
-6518 -6519 0
-6127 -6118 6520 0
6127 -6520 0
6118 -6520 0
6520 6521 0
-6520 -6521 0
-6519 -6521 6522 0
6519 -6522 0
6521 -6522 0
-6238 -6522 6523 0
6238 -6523 0
6522 -6523 0
-6513 -6523 6524 0
6513 -6524 0
6523 -6524 0
6524 6525 0
-6524 -6525 0
-6090 -6323 6526 0
6090 -6526 0
6323 -6526 0
-6064 -6086 6527 0
6064 -6527 0
6086 -6527 0
-6526 -6527 6528 0
6526 -6528 0
6527 -6528 0
6528 6529 0
-6528 -6529 0
-6054 -6106 6530 0
6054 -6530 0
6106 -6530 0
6530 6531 0
-6530 -6531 0
-6529 -6531 6532 0
6529 -6532 0
6531 -6532 0
-6062 -6076 6533 0
6062 -6533 0
6076 -6533 0
6533 6534 0
-6533 -6534 0
-6079 -6090 6535 0
6079 -6535 0
6090 -6535 0
6535 6536 0
-6535 -6536 0
-6534 -6536 6537 0
6534 -6537 0
6536 -6537 0
6537 6538 0
-6537 -6538 0
-6324 -6538 6539 0
6324 -6539 0
6538 -6539 0
6539 6540 0
-6539 -6540 0
-6521 -6540 6541 0
6521 -6541 0
6540 -6541 0
-6162 -6421 6542 0
6162 -6542 0
6421 -6542 0
-6088 -6542 6543 0
6088 -6543 0
6542 -6543 0
6543 6544 0
-6543 -6544 0
-6238 -6544 6545 0
6238 -6545 0
6544 -6545 0
-6541 -6545 6546 0
6541 -6546 0
6545 -6546 0
-6532 -6546 6547 0
6532 -6547 0
6546 -6547 0
6547 6548 0
-6547 -6548 0
-6056 -6127 6549 0
6056 -6549 0
6127 -6549 0
6549 6550 0
-6549 -6550 0
-6094 -6129 6551 0
6094 -6551 0
6129 -6551 0
-6067 -6551 6552 0
6067 -6552 0
6551 -6552 0
6552 6553 0
-6552 -6553 0
-6550 -6553 6554 0
6550 -6554 0
6553 -6554 0
6554 6555 0
-6554 -6555 0
-6233 -6555 6556 0
6233 -6556 0
6555 -6556 0
6556 6557 0
-6556 -6557 0
-6293 -6407 6558 0
6293 -6558 0
6407 -6558 0
6558 6559 0
-6558 -6559 0
-6083 -6559 6560 0
6083 -6560 0
6559 -6560 0
6560 6561 0
-6560 -6561 0
-6447 -6561 6562 0
6447 -6562 0
6561 -6562 0
-6076 -6353 6563 0
6076 -6563 0
6353 -6563 0
-6414 -6563 6564 0
6414 -6564 0
6563 -6564 0
6564 6565 0
-6564 -6565 0
-6141 -6344 6566 0
6141 -6566 0
6344 -6566 0
-6435 -6566 6567 0
6435 -6567 0
6566 -6567 0
-6086 -6567 6568 0
6086 -6568 0
6567 -6568 0
6568 6569 0
-6568 -6569 0
-6565 -6569 6570 0
6565 -6570 0
6569 -6570 0
-6426 -6484 6571 0
6426 -6571 0
6484 -6571 0
-6570 -6571 6572 0
6570 -6572 0
6571 -6572 0
-6562 -6572 6573 0
6562 -6573 0
6572 -6573 0
-6557 -6573 6574 0
6557 -6574 0
6573 -6574 0
6574 6575 0
-6574 -6575 0
-6088 -6076 6576 0
6088 -6576 0
6076 -6576 0
-6077 -6072 6577 0
6077 -6577 0
6072 -6577 0
-6576 -6577 6578 0
6576 -6578 0
6577 -6578 0
6578 6579 0
-6578 -6579 0
-6083 -6090 6580 0
6083 -6580 0
6090 -6580 0
-6249 -6580 6581 0
6249 -6581 0
6580 -6581 0
-6070 -6581 6582 0
6070 -6582 0
6581 -6582 0
6582 6583 0
-6582 -6583 0
-6579 -6583 6584 0
6579 -6584 0
6583 -6584 0
6584 6585 0
-6584 -6585 0
-6062 -6585 6586 0
6062 -6586 0
6585 -6586 0
-6422 -6586 6587 0
6422 -6587 0
6586 -6587 0
-6127 -6587 6588 0
6127 -6588 0
6587 -6588 0
6588 6589 0
-6588 -6589 0
-6214 -6294 6590 0
6214 -6590 0
6294 -6590 0
6590 6591 0
-6590 -6591 0
-6589 -6591 6592 0
6589 -6592 0
6591 -6592 0
-6090 -6566 6593 0
6090 -6593 0
6566 -6593 0
6593 6594 0
-6593 -6594 0
-6320 -6594 6595 0
6320 -6595 0
6594 -6595 0
6595 6596 0
-6595 -6596 0
-6326 -6596 6597 0
6326 -6597 0
6596 -6597 0
6597 6598 0
-6597 -6598 0
-6592 -6598 6599 0
6592 -6599 0
6598 -6599 0
6599 6600 0
-6599 -6600 0
-6085 -6100 6601 0
6085 -6601 0
6100 -6601 0
-6086 -6438 6602 0
6086 -6602 0
6438 -6602 0
6602 6603 0
-6602 -6603 0
-6357 -6563 6604 0
6357 -6604 0
6563 -6604 0
6604 6605 0
-6604 -6605 0
-6426 -6605 6606 0
6426 -6606 0
6605 -6606 0
-6068 -6112 6607 0
6068 -6607 0
6112 -6607 0
6607 6608 0
-6607 -6608 0
-6494 -6608 6609 0
6494 -6609 0
6608 -6609 0
6609 6610 0
-6609 -6610 0
-6065 -6610 6611 0
6065 -6611 0
6610 -6611 0
6611 6612 0
-6611 -6612 0
-6557 -6612 6613 0
6557 -6613 0
6612 -6613 0
-6606 -6613 6614 0
6606 -6614 0
6613 -6614 0
-6603 -6614 6615 0
6603 -6615 0
6614 -6615 0
6615 6616 0
-6615 -6616 0
-6065 -6391 6617 0
6065 -6617 0
6391 -6617 0
6617 6618 0
-6617 -6618 0
-6589 -6618 6619 0
6589 -6619 0
6618 -6619 0
-6087 -6438 6620 0
6087 -6620 0
6438 -6620 0
-6072 -6620 6621 0
6072 -6621 0
6620 -6621 0
6621 6622 0
-6621 -6622 0
-6591 -6622 6623 0
6591 -6623 0
6622 -6623 0
-6619 -6623 6624 0
6619 -6624 0
6623 -6624 0
6624 6625 0
-6624 -6625 0
-6085 -6073 6626 0
6085 -6626 0
6073 -6626 0
-6085 -6087 6627 0
6085 -6627 0
6087 -6627 0
-6057 -6094 6628 0
6057 -6628 0
6094 -6628 0
-6520 -6628 6629 0
6520 -6629 0
6628 -6629 0
-6347 -6580 6630 0
6347 -6630 0
6580 -6630 0
6630 6631 0
-6630 -6631 0
-6591 -6631 6632 0
6591 -6632 0
6631 -6632 0
6632 6633 0
-6632 -6633 0
-6634 6633 0
6634 -6633 0
-6635 6629 0
6635 -6629 0
-6636 6627 0
6636 -6627 0
-6637 6626 0
6637 -6626 0
-6638 6625 0
6638 -6625 0
-6639 6616 0
6639 -6616 0
-6640 6601 0
6640 -6601 0
-6641 6600 0
6641 -6600 0
-6642 6575 0
6642 -6575 0
-6643 6548 0
6643 -6548 0
-6644 6525 0
6644 -6525 0
-6645 6503 0
6645 -6503 0
-6646 6501 0
6646 -6501 0
-6647 6488 0
6647 -6488 0
-6648 6112 0
6648 -6112 0
-6649 6472 0
6649 -6472 0
-6650 6465 0
6650 -6465 0
-6651 6122 0
6651 -6122 0
-6652 6455 0
6652 -6455 0
-6653 6453 0
6653 -6453 0
-6654 6433 0
6654 -6433 0
-6655 6405 0
6655 -6405 0
-6656 6387 0
6656 -6387 0
-6657 6369 0
6657 -6369 0
-6658 6342 0
6658 -6342 0
-6659 6280 0
6659 -6280 0
-6660 6248 0
6660 -6248 0
-6661 6223 0
6661 -6223 0
-6662 6176 0
6662 -6176 0
6664 6680 0
-6664 -6680 0
6665 6681 0
-6665 -6681 0
6666 6682 0
-6666 -6682 0
6667 6683 0
-6667 -6683 0
6668 6684 0
-6668 -6684 0
6670 6685 0
-6670 -6685 0
6672 6686 0
-6672 -6686 0
6673 6687 0
-6673 -6687 0
6674 6688 0
-6674 -6688 0
6675 6689 0
-6675 -6689 0
6676 6690 0
-6676 -6690 0
6677 6691 0
-6677 -6691 0
6678 6692 0
-6678 -6692 0
6679 6693 0
-6679 -6693 0
6662 6694 0
-6662 -6694 0
6661 6695 0
-6661 -6695 0
6660 6696 0
-6660 -6696 0
6659 6697 0
-6659 -6697 0
6658 6698 0
-6658 -6698 0
6657 6699 0
-6657 -6699 0
-6662 -6696 6700 0
6662 -6700 0
6696 -6700 0
-6697 -6700 6701 0
6697 -6701 0
6700 -6701 0
-6689 -6690 6702 0
6689 -6702 0
6690 -6702 0
6702 6703 0
-6702 -6703 0
-6695 -6703 6704 0
6695 -6704 0
6703 -6704 0
-6701 -6704 6705 0
6701 -6705 0
6704 -6705 0
-6657 -6705 6706 0
6657 -6706 0
6705 -6706 0
6706 6707 0
-6706 -6707 0
-6695 -6701 6708 0
6695 -6708 0
6701 -6708 0
-6682 -6708 6709 0
6682 -6709 0
6708 -6709 0
-6680 -6709 6710 0
6680 -6710 0
6709 -6710 0
6710 6711 0
-6710 -6711 0
-6707 -6711 6712 0
6707 -6712 0
6711 -6712 0
-6698 -6701 6713 0
6698 -6713 0
6701 -6713 0
-6661 -6699 6714 0
6661 -6714 0
6699 -6714 0
-6713 -6714 6715 0
6713 -6715 0
6714 -6715 0
6715 6716 0
-6715 -6716 0
-6691 -6692 6717 0
6691 -6717 0
6692 -6717 0
6717 6718 0
-6717 -6718 0
-6669 -6696 6719 0
6669 -6719 0
6696 -6719 0
6719 6720 0
-6719 -6720 0
-6694 -6695 6721 0
6694 -6721 0
6695 -6721 0
-6659 -6699 6722 0
6659 -6722 0
6699 -6722 0
-6721 -6722 6723 0
6721 -6723 0
6722 -6723 0
-6698 -6723 6724 0
6698 -6724 0
6723 -6724 0
-6719 -6724 6725 0
6719 -6725 0
6724 -6725 0
-6718 -6725 6726 0
6718 -6726 0
6725 -6726 0
6726 6727 0
-6726 -6727 0
-6716 -6727 6728 0
6716 -6728 0
6727 -6728 0
-6712 -6728 6729 0
6712 -6729 0
6728 -6729 0
-6698 -6699 6730 0
6698 -6730 0
6699 -6730 0
6730 6731 0
-6730 -6731 0
-6658 -6657 6732 0
6658 -6732 0
6657 -6732 0
6732 6733 0
-6732 -6733 0
-6731 -6733 6734 0
6731 -6734 0
6733 -6734 0
-6659 -6700 6735 0
6659 -6735 0
6700 -6735 0
-6734 -6735 6736 0
6734 -6736 0
6735 -6736 0
6736 6737 0
-6736 -6737 0
-6677 -6713 6738 0
6677 -6738 0
6713 -6738 0
6738 6739 0
-6738 -6739 0
-6699 -6738 6740 0
6699 -6740 0
6738 -6740 0
6740 6741 0
-6740 -6741 0
-6737 -6741 6742 0
6737 -6742 0
6741 -6742 0
-6666 -6667 6743 0
6666 -6743 0
6667 -6743 0
6743 6744 0
-6743 -6744 0
-6693 -6713 6745 0
6693 -6745 0
6713 -6745 0
6745 6746 0
-6745 -6746 0
-6698 -6657 6747 0
6698 -6747 0
6657 -6747 0
-6700 -6747 6748 0
6700 -6748 0
6747 -6748 0
6748 6749 0
-6748 -6749 0
-6746 -6749 6750 0
6746 -6750 0
6749 -6750 0
6750 6751 0
-6750 -6751 0
-6744 -6751 6752 0
6744 -6752 0
6751 -6752 0
6752 6753 0
-6752 -6753 0
-6677 -6705 6754 0
6677 -6754 0
6705 -6754 0
6754 6755 0
-6754 -6755 0
-6753 -6755 6756 0
6753 -6756 0
6755 -6756 0
-6691 -6695 6757 0
6691 -6757 0
6695 -6757 0
6757 6758 0
-6757 -6758 0
-6734 -6757 6759 0
6734 -6759 0
6757 -6759 0
-6700 -6759 6760 0
6700 -6760 0
6759 -6760 0
6760 6761 0
-6760 -6761 0
-6664 -6665 6762 0
6664 -6762 0
6665 -6762 0
6762 6763 0
-6762 -6763 0
-6699 -6701 6764 0
6699 -6764 0
6701 -6764 0
-6679 -6764 6765 0
6679 -6765 0
6764 -6765 0
6765 6766 0
-6765 -6766 0
-6658 -6699 6767 0
6658 -6767 0
6699 -6767 0
-6696 -6767 6768 0
6696 -6768 0
6767 -6768 0
-6662 -6768 6769 0
6662 -6769 0
6768 -6769 0
6769 6770 0
-6769 -6770 0
-6766 -6770 6771 0
6766 -6771 0
6770 -6771 0
6771 6772 0
-6771 -6772 0
-6763 -6772 6773 0
6763 -6773 0
6772 -6773 0
6773 6774 0
-6773 -6774 0
-6761 -6774 6775 0
6761 -6775 0
6774 -6775 0
-6756 -6775 6776 0
6756 -6776 0
6775 -6776 0
-6742 -6776 6777 0
6742 -6777 0
6776 -6777 0
-6729 -6777 6778 0
6729 -6778 0
6777 -6778 0
6778 6779 0
-6778 -6779 0
-6681 -6767 6780 0
6681 -6780 0
6767 -6780 0
6780 6781 0
-6780 -6781 0
-6683 -6747 6782 0
6683 -6782 0
6747 -6782 0
6782 6783 0
-6782 -6783 0
-6781 -6783 6784 0
6781 -6784 0
6783 -6784 0
6784 6785 0
-6784 -6785 0
-6700 -6785 6786 0
6700 -6786 0
6785 -6786 0
6786 6787 0
-6786 -6787 0
-6737 -6787 6788 0
6737 -6788 0
6787 -6788 0
6788 6789 0
-6788 -6789 0
-6661 -6789 6790 0
6661 -6790 0
6789 -6790 0
6790 6791 0
-6790 -6791 0
-6666 -6683 6792 0
6666 -6792 0
6683 -6792 0
6792 6793 0
-6792 -6793 0
-6672 -6793 6794 0
6672 -6794 0
6793 -6794 0
6794 6795 0
-6794 -6795 0
-6695 -6702 6796 0
6695 -6796 0
6702 -6796 0
-6738 -6796 6797 0
6738 -6797 0
6796 -6797 0
-6699 -6797 6798 0
6699 -6798 0
6797 -6798 0
-6665 -6798 6799 0
6665 -6799 0
6798 -6799 0
6799 6800 0
-6799 -6800 0
-6795 -6799 6801 0
6795 -6801 0
6799 -6801 0
-6679 -6801 6802 0
6679 -6802 0
6801 -6802 0
6802 6803 0
-6802 -6803 0
-6791 -6803 6804 0
6791 -6804 0
6803 -6804 0
-6684 -6715 6805 0
6684 -6805 0
6715 -6805 0
6805 6806 0
-6805 -6806 0
-6664 -6681 6807 0
6664 -6807 0
6681 -6807 0
6807 6808 0
-6807 -6808 0
-6673 -6808 6809 0
6673 -6809 0
6808 -6809 0
6809 6810 0
-6809 -6810 0
-6798 -6810 6811 0
6798 -6811 0
6810 -6811 0
-6692 -6693 6812 0
6692 -6812 0
6693 -6812 0
6812 6813 0
-6812 -6813 0
-6678 -6679 6814 0
6678 -6814 0
6679 -6814 0
6814 6815 0
-6814 -6815 0
-6813 -6815 6816 0
6813 -6816 0
6815 -6816 0
6816 6817 0
-6816 -6817 0
-6667 -6816 6818 0
6667 -6818 0
6816 -6818 0
6818 6819 0
-6818 -6819 0
-6794 -6819 6820 0
6794 -6820 0
6819 -6820 0
6820 6821 0
-6820 -6821 0
-6811 -6821 6822 0
6811 -6822 0
6821 -6822 0
6822 6823 0
-6822 -6823 0
-6806 -6823 6824 0
6806 -6824 0
6823 -6824 0
-6804 -6824 6825 0
6804 -6825 0
6824 -6825 0
6825 6826 0
-6825 -6826 0
-6699 -6702 6827 0
6699 -6827 0
6702 -6827 0
-6743 -6827 6828 0
6743 -6828 0
6827 -6828 0
6828 6829 0
-6828 -6829 0
-6696 -6829 6830 0
6696 -6830 0
6829 -6830 0
6830 6831 0
-6830 -6831 0
-6698 -6831 6832 0
6698 -6832 0
6831 -6832 0
-6721 -6832 6833 0
6721 -6833 0
6832 -6833 0
-6697 -6833 6834 0
6697 -6834 0
6833 -6834 0
6834 6835 0
-6834 -6835 0
-6660 -6721 6836 0
6660 -6836 0
6721 -6836 0
-6747 -6836 6837 0
6747 -6837 0
6836 -6837 0
6837 6838 0
-6837 -6838 0
-6697 -6836 6839 0
6697 -6839 0
6836 -6839 0
-6657 -6839 6840 0
6657 -6840 0
6839 -6840 0
6840 6841 0
-6840 -6841 0
-6685 -6840 6842 0
6685 -6842 0
6840 -6842 0
6842 6843 0
-6842 -6843 0
-6838 -6843 6844 0
6838 -6844 0
6843 -6844 0
-6658 -6723 6845 0
6658 -6845 0
6723 -6845 0
6845 6846 0
-6845 -6846 0
-6660 -6845 6847 0
6660 -6847 0
6845 -6847 0
6847 6848 0
-6847 -6848 0
-6844 -6848 6849 0
6844 -6849 0
6848 -6849 0
-6835 -6849 6850 0
6835 -6850 0
6849 -6850 0
6850 6851 0
-6850 -6851 0
-6689 -6677 6852 0
6689 -6852 0
6677 -6852 0
-6690 -6852 6853 0
6690 -6853 0
6852 -6853 0
6853 6854 0
-6853 -6854 0
-6695 -6854 6855 0
6695 -6855 0
6854 -6855 0
6855 6856 0
-6855 -6856 0
-6658 -6856 6857 0
6658 -6857 0
6856 -6857 0
-6764 -6857 6858 0
6764 -6858 0
6857 -6858 0
-6807 -6858 6859 0
6807 -6859 0
6858 -6859 0
6859 6860 0
-6859 -6860 0
-6657 -6856 6861 0
6657 -6861 0
6856 -6861 0
-6713 -6861 6862 0
6713 -6862 0
6861 -6862 0
-6792 -6862 6863 0
6792 -6863 0
6862 -6863 0
6863 6864 0
-6863 -6864 0
-6860 -6864 6865 0
6860 -6865 0
6864 -6865 0
-6695 -6698 6866 0
6695 -6866 0
6698 -6866 0
-6696 -6697 6867 0
6696 -6867 0
6697 -6867 0
-6866 -6867 6868 0
6866 -6868 0
6867 -6868 0
-6694 -6828 6869 0
6694 -6869 0
6828 -6869 0
-6868 -6869 6870 0
6868 -6870 0
6869 -6870 0
6870 6871 0
-6870 -6871 0
-6723 -6720 6872 0
6723 -6872 0
6720 -6872 0
6872 6873 0
-6872 -6873 0
-6871 -6873 6874 0
6871 -6874 0
6873 -6874 0
-6658 -6840 6875 0
6658 -6875 0
6840 -6875 0
6875 6876 0
-6875 -6876 0
-6684 -6736 6877 0
6684 -6877 0
6736 -6877 0
6877 6878 0
-6877 -6878 0
-6876 -6878 6879 0
6876 -6879 0
6878 -6879 0
-6874 -6879 6880 0
6874 -6880 0
6879 -6880 0
-6865 -6880 6881 0
6865 -6881 0
6880 -6881 0
-6846 -6881 6882 0
6846 -6882 0
6881 -6882 0
6882 6883 0
-6882 -6883 0
-6667 -6672 6884 0
6667 -6884 0
6672 -6884 0
-6677 -6764 6885 0
6677 -6885 0
6764 -6885 0
6885 6886 0
-6885 -6886 0
-6664 -6885 6887 0
6664 -6887 0
6885 -6887 0
-6796 -6887 6888 0
6796 -6888 0
6887 -6888 0
-6698 -6888 6889 0
6698 -6889 0
6888 -6889 0
6889 6890 0
-6889 -6890 0
-6800 -6890 6891 0
6800 -6891 0
6890 -6891 0
6891 6892 0
-6891 -6892 0
-6884 -6892 6893 0
6884 -6893 0
6892 -6893 0
6893 6894 0
-6893 -6894 0
-6687 -6798 6895 0
6687 -6895 0
6798 -6895 0
6895 6896 0
-6895 -6896 0
-6884 -6895 6897 0
6884 -6897 0
6895 -6897 0
6897 6898 0
-6897 -6898 0
-6894 -6898 6899 0
6894 -6899 0
6898 -6899 0
-6684 -6691 6900 0
6684 -6900 0
6691 -6900 0
6900 6901 0
-6900 -6901 0
-6677 -6703 6902 0
6677 -6902 0
6703 -6902 0
6902 6903 0
-6902 -6903 0
-6901 -6903 6904 0
6901 -6904 0
6903 -6904 0
6904 6905 0
-6904 -6905 0
-6695 -6905 6906 0
6695 -6906 0
6905 -6906 0
6906 6907 0
-6906 -6907 0
-6697 -6907 6908 0
6697 -6908 0
6907 -6908 0
-6758 -6763 6909 0
6758 -6909 0
6763 -6909 0
6909 6910 0
-6909 -6910 0
-6908 -6910 6911 0
6908 -6911 0
6910 -6911 0
6911 6912 0
-6911 -6912 0
-6769 -6912 6913 0
6769 -6913 0
6912 -6913 0
6913 6914 0
-6913 -6914 0
-6682 -6667 6915 0
6682 -6915 0
6667 -6915 0
-6862 -6915 6916 0
6862 -6916 0
6915 -6916 0
6916 6917 0
-6916 -6917 0
-6914 -6917 6918 0
6914 -6918 0
6917 -6918 0
-6899 -6918 6919 0
6899 -6919 0
6918 -6919 0
-6693 -6792 6920 0
6693 -6920 0
6792 -6920 0
6920 6921 0
-6920 -6921 0
-6679 -6807 6922 0
6679 -6922 0
6807 -6922 0
6922 6923 0
-6922 -6923 0
-6921 -6923 6924 0
6921 -6924 0
6923 -6924 0
6924 6925 0
-6924 -6925 0
-6691 -6764 6926 0
6691 -6926 0
6764 -6926 0
-6690 -6926 6927 0
6690 -6927 0
6926 -6927 0
-6675 -6927 6928 0
6675 -6928 0
6927 -6928 0
-6866 -6928 6929 0
6866 -6929 0
6928 -6929 0
-6925 -6929 6930 0
6925 -6930 0
6929 -6930 0
6930 6931 0
-6930 -6931 0
-6684 -6847 6932 0
6684 -6932 0
6847 -6932 0
6932 6933 0
-6932 -6933 0
-6931 -6933 6934 0
6931 -6934 0
6933 -6934 0
-6658 -6706 6935 0
6658 -6935 0
6706 -6935 0
6935 6936 0
-6935 -6936 0
-6695 -6768 6937 0
6695 -6937 0
6768 -6937 0
-6659 -6937 6938 0
6659 -6938 0
6937 -6938 0
-6763 -6938 6939 0
6763 -6939 0
6938 -6939 0
6939 6940 0
-6939 -6940 0
-6936 -6940 6941 0
6936 -6941 0
6940 -6941 0
-6934 -6941 6942 0
6934 -6942 0
6941 -6942 0
-6841 -6942 6943 0
6841 -6943 0
6942 -6943 0
-6919 -6943 6944 0
6919 -6944 0
6943 -6944 0
6944 6945 0
-6944 -6945 0
-6682 -6683 6946 0
6682 -6946 0
6683 -6946 0
6946 6947 0
-6946 -6947 0
-6672 -6946 6948 0
6672 -6948 0
6946 -6948 0
6948 6949 0
-6948 -6949 0
-6673 -6799 6950 0
6673 -6950 0
6799 -6950 0
-6949 -6950 6951 0
6949 -6951 0
6950 -6951 0
6951 6952 0
-6951 -6952 0
-6936 -6952 6953 0
6936 -6953 0
6952 -6953 0
-6866 -6926 6954 0
6866 -6954 0
6926 -6954 0
6954 6955 0
-6954 -6955 0
-6689 -6954 6956 0
6689 -6956 0
6954 -6956 0
-6925 -6956 6957 0
6925 -6957 0
6956 -6957 0
6957 6958 0
-6957 -6958 0
-6835 -6958 6959 0
6835 -6959 0
6958 -6959 0
-6680 -6665 6960 0
6680 -6960 0
6665 -6960 0
-6858 -6960 6961 0
6858 -6961 0
6960 -6961 0
6961 6962 0
-6961 -6962 0
-6744 -6758 6963 0
6744 -6963 0
6758 -6963 0
6963 6964 0
-6963 -6964 0
-6908 -6964 6965 0
6908 -6965 0
6964 -6965 0
6965 6966 0
-6965 -6966 0
-6748 -6966 6967 0
6748 -6967 0
6966 -6967 0
6967 6968 0
-6967 -6968 0
-6962 -6968 6969 0
6962 -6969 0
6968 -6969 0
-6959 -6969 6970 0
6959 -6970 0
6969 -6970 0
-6953 -6970 6971 0
6953 -6971 0
6970 -6971 0
6971 6972 0
-6971 -6972 0
-6735 -6767 6973 0
6735 -6973 0
6767 -6973 0
6973 6974 0
-6973 -6974 0
-6716 -6974 6975 0
6716 -6975 0
6974 -6975 0
-6691 -6747 6976 0
6691 -6976 0
6747 -6976 0
6976 6977 0
-6976 -6977 0
-6695 -6700 6978 0
6695 -6978 0
6700 -6978 0
-6976 -6978 6979 0
6976 -6979 0
6978 -6979 0
6979 6980 0
-6979 -6980 0
-6679 -6697 6981 0
6679 -6981 0
6697 -6981 0
-6979 -6981 6982 0
6979 -6982 0
6981 -6982 0
6982 6983 0
-6982 -6983 0
-6691 -6662 6984 0
6691 -6984 0
6662 -6984 0
-6937 -6984 6985 0
6937 -6985 0
6984 -6985 0
-6679 -6985 6986 0
6679 -6986 0
6985 -6986 0
6986 6987 0
-6986 -6987 0
-6983 -6987 6988 0
6983 -6988 0
6987 -6988 0
-6975 -6988 6989 0
6975 -6989 0
6988 -6989 0
6989 6990 0
-6989 -6990 0
-6735 -6747 6991 0
6735 -6991 0
6747 -6991 0
6991 6992 0
-6991 -6992 0
-6716 -6992 6993 0
6716 -6993 0
6992 -6993 0
-6697 -6985 6994 0
6697 -6994 0
6985 -6994 0
6994 6995 0
-6994 -6995 0
-6980 -6995 6996 0
6980 -6996 0
6995 -6996 0
6996 6997 0
-6996 -6997 0
-6693 -6997 6998 0
6693 -6998 0
6997 -6998 0
6998 6999 0
-6998 -6999 0
-6697 -6658 7000 0
6697 -7000 0
6658 -7000 0
7000 7001 0
-7000 -7001 0
-6699 -7001 7002 0
6699 -7002 0
7001 -7002 0
-6836 -7002 7003 0
6836 -7003 0
7002 -7003 0
7003 7004 0
-7003 -7004 0
-6999 -7004 7005 0
6999 -7005 0
7004 -7005 0
-6841 -7005 7006 0
6841 -7006 0
7005 -7006 0
-6993 -7006 7007 0
6993 -7007 0
7006 -7007 0
7007 7008 0
-7007 -7008 0
-6681 -6888 7009 0
6681 -7009 0
6888 -7009 0
7009 7010 0
-7009 -7010 0
-6795 -7009 7011 0
6795 -7011 0
7009 -7011 0
-6673 -7011 7012 0
6673 -7012 0
7011 -7012 0
7012 7013 0
-7012 -7013 0
-6860 -7013 7014 0
6860 -7014 0
7013 -7014 0
-6680 -6681 7015 0
6680 -7015 0
6681 -7015 0
7015 7016 0
-7015 -7016 0
-6763 -7016 7017 0
6763 -7017 0
7016 -7017 0
-6954 -7017 7018 0
6954 -7018 0
7017 -7018 0
-6675 -6676 7019 0
6675 -7019 0
6676 -7019 0
7019 7020 0
-7019 -7020 0
-6679 -7020 7021 0
6679 -7021 0
7020 -7021 0
-7018 -7021 7022 0
7018 -7022 0
7021 -7022 0
7022 7023 0
-7022 -7023 0
-6680 -6689 7024 0
6680 -7024 0
6689 -7024 0
-6690 -6708 7025 0
6690 -7025 0
6708 -7025 0
-6682 -7025 7026 0
6682 -7026 0
7025 -7026 0
-6732 -7026 7027 0
6732 -7027 0
7026 -7027 0
-7024 -7027 7028 0
7024 -7028 0
7027 -7028 0
7028 7029 0
-7028 -7029 0
-7023 -7029 7030 0
7023 -7030 0
7029 -7030 0
-7014 -7030 7031 0
7014 -7031 0
7030 -7031 0
-6762 -6845 7032 0
6762 -7032 0
6845 -7032 0
-6696 -7032 7033 0
6696 -7033 0
7032 -7033 0
7033 7034 0
-7033 -7034 0
-7031 -7034 7035 0
7031 -7035 0
7034 -7035 0
7035 7036 0
-7035 -7036 0
-6699 -6757 7037 0
6699 -7037 0
6757 -7037 0
-6745 -7037 7038 0
6745 -7038 0
7037 -7038 0
-6792 -7038 7039 0
6792 -7039 0
7038 -7039 0
7039 7040 0
-7039 -7040 0
-6915 -7038 7041 0
6915 -7041 0
7038 -7041 0
7041 7042 0
-7041 -7042 0
-7040 -7042 7043 0
7040 -7043 0
7042 -7043 0
7043 7044 0
-7043 -7044 0
-7020 -7044 7045 0
7020 -7045 0
7044 -7045 0
7045 7046 0
-7045 -7046 0
-7029 -7046 7047 0
7029 -7047 0
7046 -7047 0
-6797 -6810 7048 0
6797 -7048 0
6810 -7048 0
-6792 -7048 7049 0
6792 -7049 0
7048 -7049 0
7049 7050 0
-7049 -7050 0
-6672 -7049 7051 0
6672 -7051 0
7049 -7051 0
7051 7052 0
-7051 -7052 0
-6871 -7052 7053 0
6871 -7053 0
7052 -7053 0
-6864 -7053 7054 0
6864 -7054 0
7053 -7054 0
-7047 -7054 7055 0
7047 -7055 0
7054 -7055 0
7055 7056 0
-7055 -7056 0
-6841 -7004 7057 0
6841 -7057 0
7004 -7057 0
7057 7058 0
-7057 -7058 0
-6662 -6938 7059 0
6662 -7059 0
6938 -7059 0
7059 7060 0
-7059 -7060 0
-6679 -6715 7061 0
6679 -7061 0
6715 -7061 0
7061 7062 0
-7061 -7062 0
-7060 -7062 7063 0
7060 -7063 0
7062 -7063 0
-6693 -6985 7064 0
6693 -7064 0
6985 -7064 0
7064 7065 0
-7064 -7065 0
-6983 -7065 7066 0
6983 -7066 0
7065 -7066 0
-7063 -7066 7067 0
7063 -7067 0
7066 -7067 0
7067 7068 0
-7067 -7068 0
-6678 -6715 7069 0
6678 -7069 0
6715 -7069 0
7069 7070 0
-7069 -7070 0
-6695 -6736 7071 0
6695 -7071 0
6736 -7071 0
7071 7072 0
-7071 -7072 0
-6761 -7072 7073 0
6761 -7073 0
7072 -7073 0
-7070 -7073 7074 0
7070 -7074 0
7073 -7074 0
7074 7075 0
-7074 -7075 0
-6677 -6725 7076 0
6677 -7076 0
6725 -7076 0
7076 7077 0
-7076 -7077 0
-6871 -7077 7078 0
6871 -7078 0
7077 -7078 0
-6664 -6780 7079 0
6664 -7079 0
6780 -7079 0
7079 7080 0
-7079 -7080 0
-6666 -6782 7081 0
6666 -7081 0
6782 -7081 0
7081 7082 0
-7081 -7082 0
-7080 -7082 7083 0
7080 -7083 0
7082 -7083 0
7083 7084 0
-7083 -7084 0
-7025 -7084 7085 0
7025 -7085 0
7084 -7085 0
-6852 -7085 7086 0
6852 -7086 0
7085 -7086 0
7086 7087 0
-7086 -7087 0
-6955 -7029 7088 0
6955 -7088 0
7029 -7088 0
-7087 -7088 7089 0
7087 -7089 0
7088 -7089 0
-7078 -7089 7090 0
7078 -7090 0
7089 -7090 0
7090 7091 0
-7090 -7091 0
-6659 -6734 7092 0
6659 -7092 0
6734 -7092 0
7092 7093 0
-7092 -7093 0
-6977 -7093 7094 0
6977 -7094 0
7093 -7094 0
7094 7095 0
-7094 -7095 0
-6978 -7095 7096 0
6978 -7096 0
7095 -7096 0
7096 7097 0
-7096 -7097 0
-6848 -7097 7098 0
6848 -7098 0
7097 -7098 0
-6698 -6839 7099 0
6698 -7099 0
6839 -7099 0
7099 7100 0
-7099 -7100 0
-6716 -7100 7101 0
6716 -7101 0
7100 -7101 0
-6841 -7101 7102 0
6841 -7102 0
7101 -7102 0
-7098 -7102 7103 0
7098 -7103 0
7102 -7103 0
7103 7104 0
-7103 -7104 0
-6716 -6995 7105 0
6716 -7105 0
6995 -7105 0
7105 7106 0
-7105 -7106 0
-6677 -6868 7107 0
6677 -7107 0
6868 -7107 0
-6699 -7107 7108 0
6699 -7108 0
7107 -7108 0
7108 7109 0
-7108 -7109 0
-6745 -7020 7110 0
6745 -7110 0
7020 -7110 0
7110 7111 0
-7110 -7111 0
-6739 -7111 7112 0
6739 -7112 0
7111 -7112 0
7112 7113 0
-7112 -7113 0
-6683 -7113 7114 0
6683 -7114 0
7113 -7114 0
7114 7115 0
-7114 -7115 0
-7109 -7115 7116 0
7109 -7116 0
7115 -7116 0
-6765 -7020 7117 0
6765 -7117 0
7020 -7117 0
7117 7118 0
-7117 -7118 0
-6886 -7118 7119 0
6886 -7119 0
7118 -7119 0
7119 7120 0
-7119 -7120 0
-6681 -7120 7121 0
6681 -7121 0
7120 -7121 0
7121 7122 0
-7121 -7122 0
-6730 -6721 7123 0
6730 -7123 0
6721 -7123 0
7123 7124 0
-7123 -7124 0
-7122 -7124 7125 0
7122 -7125 0
7124 -7125 0
-6841 -7125 7126 0
6841 -7126 0
7125 -7126 0
-7116 -7126 7127 0
7116 -7127 0
7126 -7127 0
7127 7128 0
-7127 -7128 0
-6693 -6926 7129 0
6693 -7129 0
6926 -7129 0
-6667 -6689 7130 0
6667 -7130 0
6689 -7130 0
-7129 -7130 7131 0
7129 -7131 0
7130 -7131 0
7131 7132 0
-7131 -7132 0
-6657 -6709 7133 0
6657 -7133 0
6709 -7133 0
7133 7134 0
-7133 -7134 0
-7132 -7134 7135 0
7132 -7135 0
7134 -7135 0
-6665 -6679 7136 0
6665 -7136 0
6679 -7136 0
7136 7137 0
-7136 -7137 0
-6682 -6693 7138 0
6682 -7138 0
6693 -7138 0
7138 7139 0
-7138 -7139 0
-7137 -7139 7140 0
7137 -7140 0
7139 -7140 0
7140 7141 0
-7140 -7141 0
-6927 -7141 7142 0
6927 -7142 0
7141 -7142 0
7142 7143 0
-7142 -7143 0
-7124 -7143 7144 0
7124 -7144 0
7143 -7144 0
-6765 -7024 7145 0
6765 -7145 0
7024 -7145 0
-6691 -7145 7146 0
6691 -7146 0
7145 -7146 0
7146 7147 0
-7146 -7147 0
-6841 -7147 7148 0
6841 -7148 0
7147 -7148 0
-7144 -7148 7149 0
7144 -7149 0
7148 -7149 0
-7135 -7149 7150 0
7135 -7150 0
7149 -7150 0
7150 7151 0
-7150 -7151 0
-6659 -6730 7152 0
6659 -7152 0
6730 -7152 0
7152 7153 0
-7152 -7153 0
-6697 -6732 7154 0
6697 -7154 0
6732 -7154 0
-6670 -7154 7155 0
6670 -7155 0
7154 -7155 0
7155 7156 0
-7155 -7156 0
-7153 -7156 7157 0
7153 -7157 0
7156 -7157 0
7157 7158 0
-7157 -7158 0
-6836 -7158 7159 0
6836 -7159 0
7158 -7159 0
7159 7160 0
-7159 -7160 0
-6896 -7010 7161 0
6896 -7161 0
7010 -7161 0
7161 7162 0
-7161 -7162 0
-6686 -7162 7163 0
6686 -7163 0
7162 -7163 0
7163 7164 0
-7163 -7164 0
-7050 -7164 7165 0
7050 -7165 0
7164 -7165 0
-6679 -6956 7166 0
6679 -7166 0
6956 -7166 0
-7017 -7166 7167 0
7017 -7167 0
7166 -7167 0
7167 7168 0
-7167 -7168 0
-6744 -6947 7169 0
6744 -7169 0
6947 -7169 0
-7038 -7169 7170 0
7038 -7170 0
7169 -7170 0
-6689 -7170 7171 0
6689 -7171 0
7170 -7171 0
7171 7172 0
-7171 -7172 0
-7168 -7172 7173 0
7168 -7173 0
7172 -7173 0
-7029 -7087 7174 0
7029 -7174 0
7087 -7174 0
-7173 -7174 7175 0
7173 -7175 0
7174 -7175 0
-7165 -7175 7176 0
7165 -7176 0
7175 -7176 0
-7160 -7176 7177 0
7160 -7177 0
7176 -7177 0
7177 7178 0
-7177 -7178 0
-6691 -6679 7179 0
6691 -7179 0
6679 -7179 0
-6680 -6675 7180 0
6680 -7180 0
6675 -7180 0
-7179 -7180 7181 0
7179 -7181 0
7180 -7181 0
7181 7182 0
-7181 -7182 0
-6686 -6693 7183 0
6686 -7183 0
6693 -7183 0
-6852 -7183 7184 0
6852 -7184 0
7183 -7184 0
-6673 -7184 7185 0
6673 -7185 0
7184 -7185 0
7185 7186 0
-7185 -7186 0
-7182 -7186 7187 0
7182 -7187 0
7186 -7187 0
7187 7188 0
-7187 -7188 0
-6665 -7188 7189 0
6665 -7189 0
7188 -7189 0
-7025 -7189 7190 0
7025 -7190 0
7189 -7190 0
-6730 -7190 7191 0
6730 -7191 0
7190 -7191 0
7191 7192 0
-7191 -7192 0
-6817 -6897 7193 0
6817 -7193 0
6897 -7193 0
7193 7194 0
-7193 -7194 0
-7192 -7194 7195 0
7192 -7195 0
7194 -7195 0
-6693 -7169 7196 0
6693 -7196 0
7169 -7196 0
7196 7197 0
-7196 -7197 0
-6923 -7197 7198 0
6923 -7198 0
7197 -7198 0
7198 7199 0
-7198 -7199 0
-6929 -7199 7200 0
6929 -7200 0
7199 -7200 0
7200 7201 0
-7200 -7201 0
-7195 -7201 7202 0
7195 -7202 0
7201 -7202 0
7202 7203 0
-7202 -7203 0
-6688 -6703 7204 0
6688 -7204 0
6703 -7204 0
-6689 -7041 7205 0
6689 -7205 0
7041 -7205 0
7205 7206 0
-7205 -7206 0
-6960 -7166 7207 0
6960 -7207 0
7166 -7207 0
7207 7208 0
-7207 -7208 0
-7029 -7208 7209 0
7029 -7209 0
7208 -7209 0
-6671 -6715 7210 0
6671 -7210 0
6715 -7210 0
7210 7211 0
-7210 -7211 0
-7097 -7211 7212 0
7097 -7212 0
7211 -7212 0
7212 7213 0
-7212 -7213 0
-6668 -7213 7214 0
6668 -7214 0
7213 -7214 0
7214 7215 0
-7214 -7215 0
-7160 -7215 7216 0
7160 -7216 0
7215 -7216 0
-7209 -7216 7217 0
7209 -7217 0
7216 -7217 0
-7206 -7217 7218 0
7206 -7218 0
7217 -7218 0
7218 7219 0
-7218 -7219 0
-6668 -6994 7220 0
6668 -7220 0
6994 -7220 0
7220 7221 0
-7220 -7221 0
-7192 -7221 7222 0
7192 -7222 0
7221 -7222 0
-6690 -7041 7223 0
6690 -7223 0
7041 -7223 0
-6675 -7223 7224 0
6675 -7224 0
7223 -7224 0
7224 7225 0
-7224 -7225 0
-7194 -7225 7226 0
7194 -7226 0
7225 -7226 0
-7222 -7226 7227 0
7222 -7227 0
7226 -7227 0
7227 7228 0
-7227 -7228 0
-6688 -6676 7229 0
6688 -7229 0
6676 -7229 0
-6688 -6690 7230 0
6688 -7230 0
6690 -7230 0
-6660 -6697 7231 0
6660 -7231 0
6697 -7231 0
-7123 -7231 7232 0
7123 -7232 0
7231 -7232 0
-6950 -7183 7233 0
6950 -7233 0
7183 -7233 0
7233 7234 0
-7233 -7234 0
-7194 -7234 7235 0
7194 -7235 0
7234 -7235 0
7235 7236 0
-7235 -7236 0
-7237 7236 0
7237 -7236 0
-7238 7232 0
7238 -7232 0
-7239 7230 0
7239 -7230 0
-7240 7229 0
7240 -7229 0
-7241 7228 0
7241 -7228 0
-7242 7219 0
7242 -7219 0
-7243 7204 0
7243 -7204 0
-7244 7203 0
7244 -7203 0
-7245 7178 0
7245 -7178 0
-7246 7151 0
7246 -7151 0
-7247 7128 0
7247 -7128 0
-7248 7106 0
7248 -7106 0
-7249 7104 0
7249 -7104 0
-7250 7091 0
7250 -7091 0
-7251 6715 0
7251 -6715 0
-7252 7075 0
7252 -7075 0
-7253 7068 0
7253 -7068 0
-7254 6725 0
7254 -6725 0
-7255 7058 0
7255 -7058 0
-7256 7056 0
7256 -7056 0
-7257 7036 0
7257 -7036 0
-7258 7008 0
7258 -7008 0
-7259 6990 0
7259 -6990 0
-7260 6972 0
7260 -6972 0
-7261 6945 0
7261 -6945 0
-7262 6883 0
7262 -6883 0
-7263 6851 0
7263 -6851 0
-7264 6826 0
7264 -6826 0
-7265 6779 0
7265 -6779 0
7267 7283 0
-7267 -7283 0
7268 7284 0
-7268 -7284 0
7269 7285 0
-7269 -7285 0
7270 7286 0
-7270 -7286 0
7271 7287 0
-7271 -7287 0
7273 7288 0
-7273 -7288 0
7275 7289 0
-7275 -7289 0
7276 7290 0
-7276 -7290 0
7277 7291 0
-7277 -7291 0
7278 7292 0
-7278 -7292 0
7279 7293 0
-7279 -7293 0
7280 7294 0
-7280 -7294 0
7281 7295 0
-7281 -7295 0
7282 7296 0
-7282 -7296 0
7265 7297 0
-7265 -7297 0
7264 7298 0
-7264 -7298 0
7263 7299 0
-7263 -7299 0
7262 7300 0
-7262 -7300 0
7261 7301 0
-7261 -7301 0
7260 7302 0
-7260 -7302 0
-7265 -7299 7303 0
7265 -7303 0
7299 -7303 0
-7300 -7303 7304 0
7300 -7304 0
7303 -7304 0
-7292 -7293 7305 0
7292 -7305 0
7293 -7305 0
7305 7306 0
-7305 -7306 0
-7298 -7306 7307 0
7298 -7307 0
7306 -7307 0
-7304 -7307 7308 0
7304 -7308 0
7307 -7308 0
-7260 -7308 7309 0
7260 -7309 0
7308 -7309 0
7309 7310 0
-7309 -7310 0
-7298 -7304 7311 0
7298 -7311 0
7304 -7311 0
-7285 -7311 7312 0
7285 -7312 0
7311 -7312 0
-7283 -7312 7313 0
7283 -7313 0
7312 -7313 0
7313 7314 0
-7313 -7314 0
-7310 -7314 7315 0
7310 -7315 0
7314 -7315 0
-7301 -7304 7316 0
7301 -7316 0
7304 -7316 0
-7264 -7302 7317 0
7264 -7317 0
7302 -7317 0
-7316 -7317 7318 0
7316 -7318 0
7317 -7318 0
7318 7319 0
-7318 -7319 0
-7294 -7295 7320 0
7294 -7320 0
7295 -7320 0
7320 7321 0
-7320 -7321 0
-7272 -7299 7322 0
7272 -7322 0
7299 -7322 0
7322 7323 0
-7322 -7323 0
-7297 -7298 7324 0
7297 -7324 0
7298 -7324 0
-7262 -7302 7325 0
7262 -7325 0
7302 -7325 0
-7324 -7325 7326 0
7324 -7326 0
7325 -7326 0
-7301 -7326 7327 0
7301 -7327 0
7326 -7327 0
-7322 -7327 7328 0
7322 -7328 0
7327 -7328 0
-7321 -7328 7329 0
7321 -7329 0
7328 -7329 0
7329 7330 0
-7329 -7330 0
-7319 -7330 7331 0
7319 -7331 0
7330 -7331 0
-7315 -7331 7332 0
7315 -7332 0
7331 -7332 0
-7301 -7302 7333 0
7301 -7333 0
7302 -7333 0
7333 7334 0
-7333 -7334 0
-7261 -7260 7335 0
7261 -7335 0
7260 -7335 0
7335 7336 0
-7335 -7336 0
-7334 -7336 7337 0
7334 -7337 0
7336 -7337 0
-7262 -7303 7338 0
7262 -7338 0
7303 -7338 0
-7337 -7338 7339 0
7337 -7339 0
7338 -7339 0
7339 7340 0
-7339 -7340 0
-7280 -7316 7341 0
7280 -7341 0
7316 -7341 0
7341 7342 0
-7341 -7342 0
-7302 -7341 7343 0
7302 -7343 0
7341 -7343 0
7343 7344 0
-7343 -7344 0
-7340 -7344 7345 0
7340 -7345 0
7344 -7345 0
-7269 -7270 7346 0
7269 -7346 0
7270 -7346 0
7346 7347 0
-7346 -7347 0
-7296 -7316 7348 0
7296 -7348 0
7316 -7348 0
7348 7349 0
-7348 -7349 0
-7301 -7260 7350 0
7301 -7350 0
7260 -7350 0
-7303 -7350 7351 0
7303 -7351 0
7350 -7351 0
7351 7352 0
-7351 -7352 0
-7349 -7352 7353 0
7349 -7353 0
7352 -7353 0
7353 7354 0
-7353 -7354 0
-7347 -7354 7355 0
7347 -7355 0
7354 -7355 0
7355 7356 0
-7355 -7356 0
-7280 -7308 7357 0
7280 -7357 0
7308 -7357 0
7357 7358 0
-7357 -7358 0
-7356 -7358 7359 0
7356 -7359 0
7358 -7359 0
-7294 -7298 7360 0
7294 -7360 0
7298 -7360 0
7360 7361 0
-7360 -7361 0
-7337 -7360 7362 0
7337 -7362 0
7360 -7362 0
-7303 -7362 7363 0
7303 -7363 0
7362 -7363 0
7363 7364 0
-7363 -7364 0
-7267 -7268 7365 0
7267 -7365 0
7268 -7365 0
7365 7366 0
-7365 -7366 0
-7302 -7304 7367 0
7302 -7367 0
7304 -7367 0
-7282 -7367 7368 0
7282 -7368 0
7367 -7368 0
7368 7369 0
-7368 -7369 0
-7261 -7302 7370 0
7261 -7370 0
7302 -7370 0
-7299 -7370 7371 0
7299 -7371 0
7370 -7371 0
-7265 -7371 7372 0
7265 -7372 0
7371 -7372 0
7372 7373 0
-7372 -7373 0
-7369 -7373 7374 0
7369 -7374 0
7373 -7374 0
7374 7375 0
-7374 -7375 0
-7366 -7375 7376 0
7366 -7376 0
7375 -7376 0
7376 7377 0
-7376 -7377 0
-7364 -7377 7378 0
7364 -7378 0
7377 -7378 0
-7359 -7378 7379 0
7359 -7379 0
7378 -7379 0
-7345 -7379 7380 0
7345 -7380 0
7379 -7380 0
-7332 -7380 7381 0
7332 -7381 0
7380 -7381 0
7381 7382 0
-7381 -7382 0
-7284 -7370 7383 0
7284 -7383 0
7370 -7383 0
7383 7384 0
-7383 -7384 0
-7286 -7350 7385 0
7286 -7385 0
7350 -7385 0
7385 7386 0
-7385 -7386 0
-7384 -7386 7387 0
7384 -7387 0
7386 -7387 0
7387 7388 0
-7387 -7388 0
-7303 -7388 7389 0
7303 -7389 0
7388 -7389 0
7389 7390 0
-7389 -7390 0
-7340 -7390 7391 0
7340 -7391 0
7390 -7391 0
7391 7392 0
-7391 -7392 0
-7264 -7392 7393 0
7264 -7393 0
7392 -7393 0
7393 7394 0
-7393 -7394 0
-7269 -7286 7395 0
7269 -7395 0
7286 -7395 0
7395 7396 0
-7395 -7396 0
-7275 -7396 7397 0
7275 -7397 0
7396 -7397 0
7397 7398 0
-7397 -7398 0
-7298 -7305 7399 0
7298 -7399 0
7305 -7399 0
-7341 -7399 7400 0
7341 -7400 0
7399 -7400 0
-7302 -7400 7401 0
7302 -7401 0
7400 -7401 0
-7268 -7401 7402 0
7268 -7402 0
7401 -7402 0
7402 7403 0
-7402 -7403 0
-7398 -7402 7404 0
7398 -7404 0
7402 -7404 0
-7282 -7404 7405 0
7282 -7405 0
7404 -7405 0
7405 7406 0
-7405 -7406 0
-7394 -7406 7407 0
7394 -7407 0
7406 -7407 0
-7287 -7318 7408 0
7287 -7408 0
7318 -7408 0
7408 7409 0
-7408 -7409 0
-7267 -7284 7410 0
7267 -7410 0
7284 -7410 0
7410 7411 0
-7410 -7411 0
-7276 -7411 7412 0
7276 -7412 0
7411 -7412 0
7412 7413 0
-7412 -7413 0
-7401 -7413 7414 0
7401 -7414 0
7413 -7414 0
-7295 -7296 7415 0
7295 -7415 0
7296 -7415 0
7415 7416 0
-7415 -7416 0
-7281 -7282 7417 0
7281 -7417 0
7282 -7417 0
7417 7418 0
-7417 -7418 0
-7416 -7418 7419 0
7416 -7419 0
7418 -7419 0
7419 7420 0
-7419 -7420 0
-7270 -7419 7421 0
7270 -7421 0
7419 -7421 0
7421 7422 0
-7421 -7422 0
-7397 -7422 7423 0
7397 -7423 0
7422 -7423 0
7423 7424 0
-7423 -7424 0
-7414 -7424 7425 0
7414 -7425 0
7424 -7425 0
7425 7426 0
-7425 -7426 0
-7409 -7426 7427 0
7409 -7427 0
7426 -7427 0
-7407 -7427 7428 0
7407 -7428 0
7427 -7428 0
7428 7429 0
-7428 -7429 0
-7302 -7305 7430 0
7302 -7430 0
7305 -7430 0
-7346 -7430 7431 0
7346 -7431 0
7430 -7431 0
7431 7432 0
-7431 -7432 0
-7299 -7432 7433 0
7299 -7433 0
7432 -7433 0
7433 7434 0
-7433 -7434 0
-7301 -7434 7435 0
7301 -7435 0
7434 -7435 0
-7324 -7435 7436 0
7324 -7436 0
7435 -7436 0
-7300 -7436 7437 0
7300 -7437 0
7436 -7437 0
7437 7438 0
-7437 -7438 0
-7263 -7324 7439 0
7263 -7439 0
7324 -7439 0
-7350 -7439 7440 0
7350 -7440 0
7439 -7440 0
7440 7441 0
-7440 -7441 0
-7300 -7439 7442 0
7300 -7442 0
7439 -7442 0
-7260 -7442 7443 0
7260 -7443 0
7442 -7443 0
7443 7444 0
-7443 -7444 0
-7288 -7443 7445 0
7288 -7445 0
7443 -7445 0
7445 7446 0
-7445 -7446 0
-7441 -7446 7447 0
7441 -7447 0
7446 -7447 0
-7261 -7326 7448 0
7261 -7448 0
7326 -7448 0
7448 7449 0
-7448 -7449 0
-7263 -7448 7450 0
7263 -7450 0
7448 -7450 0
7450 7451 0
-7450 -7451 0
-7447 -7451 7452 0
7447 -7452 0
7451 -7452 0
-7438 -7452 7453 0
7438 -7453 0
7452 -7453 0
7453 7454 0
-7453 -7454 0
-7292 -7280 7455 0
7292 -7455 0
7280 -7455 0
-7293 -7455 7456 0
7293 -7456 0
7455 -7456 0
7456 7457 0
-7456 -7457 0
-7298 -7457 7458 0
7298 -7458 0
7457 -7458 0
7458 7459 0
-7458 -7459 0
-7261 -7459 7460 0
7261 -7460 0
7459 -7460 0
-7367 -7460 7461 0
7367 -7461 0
7460 -7461 0
-7410 -7461 7462 0
7410 -7462 0
7461 -7462 0
7462 7463 0
-7462 -7463 0
-7260 -7459 7464 0
7260 -7464 0
7459 -7464 0
-7316 -7464 7465 0
7316 -7465 0
7464 -7465 0
-7395 -7465 7466 0
7395 -7466 0
7465 -7466 0
7466 7467 0
-7466 -7467 0
-7463 -7467 7468 0
7463 -7468 0
7467 -7468 0
-7298 -7301 7469 0
7298 -7469 0
7301 -7469 0
-7299 -7300 7470 0
7299 -7470 0
7300 -7470 0
-7469 -7470 7471 0
7469 -7471 0
7470 -7471 0
-7297 -7431 7472 0
7297 -7472 0
7431 -7472 0
-7471 -7472 7473 0
7471 -7473 0
7472 -7473 0
7473 7474 0
-7473 -7474 0
-7326 -7323 7475 0
7326 -7475 0
7323 -7475 0
7475 7476 0
-7475 -7476 0
-7474 -7476 7477 0
7474 -7477 0
7476 -7477 0
-7261 -7443 7478 0
7261 -7478 0
7443 -7478 0
7478 7479 0
-7478 -7479 0
-7287 -7339 7480 0
7287 -7480 0
7339 -7480 0
7480 7481 0
-7480 -7481 0
-7479 -7481 7482 0
7479 -7482 0
7481 -7482 0
-7477 -7482 7483 0
7477 -7483 0
7482 -7483 0
-7468 -7483 7484 0
7468 -7484 0
7483 -7484 0
-7449 -7484 7485 0
7449 -7485 0
7484 -7485 0
7485 7486 0
-7485 -7486 0
-7270 -7275 7487 0
7270 -7487 0
7275 -7487 0
-7280 -7367 7488 0
7280 -7488 0
7367 -7488 0
7488 7489 0
-7488 -7489 0
-7267 -7488 7490 0
7267 -7490 0
7488 -7490 0
-7399 -7490 7491 0
7399 -7491 0
7490 -7491 0
-7301 -7491 7492 0
7301 -7492 0
7491 -7492 0
7492 7493 0
-7492 -7493 0
-7403 -7493 7494 0
7403 -7494 0
7493 -7494 0
7494 7495 0
-7494 -7495 0
-7487 -7495 7496 0
7487 -7496 0
7495 -7496 0
7496 7497 0
-7496 -7497 0
-7290 -7401 7498 0
7290 -7498 0
7401 -7498 0
7498 7499 0
-7498 -7499 0
-7487 -7498 7500 0
7487 -7500 0
7498 -7500 0
7500 7501 0
-7500 -7501 0
-7497 -7501 7502 0
7497 -7502 0
7501 -7502 0
-7287 -7294 7503 0
7287 -7503 0
7294 -7503 0
7503 7504 0
-7503 -7504 0
-7280 -7306 7505 0
7280 -7505 0
7306 -7505 0
7505 7506 0
-7505 -7506 0
-7504 -7506 7507 0
7504 -7507 0
7506 -7507 0
7507 7508 0
-7507 -7508 0
-7298 -7508 7509 0
7298 -7509 0
7508 -7509 0
7509 7510 0
-7509 -7510 0
-7300 -7510 7511 0
7300 -7511 0
7510 -7511 0
-7361 -7366 7512 0
7361 -7512 0
7366 -7512 0
7512 7513 0
-7512 -7513 0
-7511 -7513 7514 0
7511 -7514 0
7513 -7514 0
7514 7515 0
-7514 -7515 0
-7372 -7515 7516 0
7372 -7516 0
7515 -7516 0
7516 7517 0
-7516 -7517 0
-7285 -7270 7518 0
7285 -7518 0
7270 -7518 0
-7465 -7518 7519 0
7465 -7519 0
7518 -7519 0
7519 7520 0
-7519 -7520 0
-7517 -7520 7521 0
7517 -7521 0
7520 -7521 0
-7502 -7521 7522 0
7502 -7522 0
7521 -7522 0
-7296 -7395 7523 0
7296 -7523 0
7395 -7523 0
7523 7524 0
-7523 -7524 0
-7282 -7410 7525 0
7282 -7525 0
7410 -7525 0
7525 7526 0
-7525 -7526 0
-7524 -7526 7527 0
7524 -7527 0
7526 -7527 0
7527 7528 0
-7527 -7528 0
-7294 -7367 7529 0
7294 -7529 0
7367 -7529 0
-7293 -7529 7530 0
7293 -7530 0
7529 -7530 0
-7278 -7530 7531 0
7278 -7531 0
7530 -7531 0
-7469 -7531 7532 0
7469 -7532 0
7531 -7532 0
-7528 -7532 7533 0
7528 -7533 0
7532 -7533 0
7533 7534 0
-7533 -7534 0
-7287 -7450 7535 0
7287 -7535 0
7450 -7535 0
7535 7536 0
-7535 -7536 0
-7534 -7536 7537 0
7534 -7537 0
7536 -7537 0
-7261 -7309 7538 0
7261 -7538 0
7309 -7538 0
7538 7539 0
-7538 -7539 0
-7298 -7371 7540 0
7298 -7540 0
7371 -7540 0
-7262 -7540 7541 0
7262 -7541 0
7540 -7541 0
-7366 -7541 7542 0
7366 -7542 0
7541 -7542 0
7542 7543 0
-7542 -7543 0
-7539 -7543 7544 0
7539 -7544 0
7543 -7544 0
-7537 -7544 7545 0
7537 -7545 0
7544 -7545 0
-7444 -7545 7546 0
7444 -7546 0
7545 -7546 0
-7522 -7546 7547 0
7522 -7547 0
7546 -7547 0
7547 7548 0
-7547 -7548 0
-7285 -7286 7549 0
7285 -7549 0
7286 -7549 0
7549 7550 0
-7549 -7550 0
-7275 -7549 7551 0
7275 -7551 0
7549 -7551 0
7551 7552 0
-7551 -7552 0
-7276 -7402 7553 0
7276 -7553 0
7402 -7553 0
-7552 -7553 7554 0
7552 -7554 0
7553 -7554 0
7554 7555 0
-7554 -7555 0
-7539 -7555 7556 0
7539 -7556 0
7555 -7556 0
-7469 -7529 7557 0
7469 -7557 0
7529 -7557 0
7557 7558 0
-7557 -7558 0
-7292 -7557 7559 0
7292 -7559 0
7557 -7559 0
-7528 -7559 7560 0
7528 -7560 0
7559 -7560 0
7560 7561 0
-7560 -7561 0
-7438 -7561 7562 0
7438 -7562 0
7561 -7562 0
-7283 -7268 7563 0
7283 -7563 0
7268 -7563 0
-7461 -7563 7564 0
7461 -7564 0
7563 -7564 0
7564 7565 0
-7564 -7565 0
-7347 -7361 7566 0
7347 -7566 0
7361 -7566 0
7566 7567 0
-7566 -7567 0
-7511 -7567 7568 0
7511 -7568 0
7567 -7568 0
7568 7569 0
-7568 -7569 0
-7351 -7569 7570 0
7351 -7570 0
7569 -7570 0
7570 7571 0
-7570 -7571 0
-7565 -7571 7572 0
7565 -7572 0
7571 -7572 0
-7562 -7572 7573 0
7562 -7573 0
7572 -7573 0
-7556 -7573 7574 0
7556 -7574 0
7573 -7574 0
7574 7575 0
-7574 -7575 0
-7338 -7370 7576 0
7338 -7576 0
7370 -7576 0
7576 7577 0
-7576 -7577 0
-7319 -7577 7578 0
7319 -7578 0
7577 -7578 0
-7294 -7350 7579 0
7294 -7579 0
7350 -7579 0
7579 7580 0
-7579 -7580 0
-7298 -7303 7581 0
7298 -7581 0
7303 -7581 0
-7579 -7581 7582 0
7579 -7582 0
7581 -7582 0
7582 7583 0
-7582 -7583 0
-7282 -7300 7584 0
7282 -7584 0
7300 -7584 0
-7582 -7584 7585 0
7582 -7585 0
7584 -7585 0
7585 7586 0
-7585 -7586 0
-7294 -7265 7587 0
7294 -7587 0
7265 -7587 0
-7540 -7587 7588 0
7540 -7588 0
7587 -7588 0
-7282 -7588 7589 0
7282 -7589 0
7588 -7589 0
7589 7590 0
-7589 -7590 0
-7586 -7590 7591 0
7586 -7591 0
7590 -7591 0
-7578 -7591 7592 0
7578 -7592 0
7591 -7592 0
7592 7593 0
-7592 -7593 0
-7338 -7350 7594 0
7338 -7594 0
7350 -7594 0
7594 7595 0
-7594 -7595 0
-7319 -7595 7596 0
7319 -7596 0
7595 -7596 0
-7300 -7588 7597 0
7300 -7597 0
7588 -7597 0
7597 7598 0
-7597 -7598 0
-7583 -7598 7599 0
7583 -7599 0
7598 -7599 0
7599 7600 0
-7599 -7600 0
-7296 -7600 7601 0
7296 -7601 0
7600 -7601 0
7601 7602 0
-7601 -7602 0
-7300 -7261 7603 0
7300 -7603 0
7261 -7603 0
7603 7604 0
-7603 -7604 0
-7302 -7604 7605 0
7302 -7605 0
7604 -7605 0
-7439 -7605 7606 0
7439 -7606 0
7605 -7606 0
7606 7607 0
-7606 -7607 0
-7602 -7607 7608 0
7602 -7608 0
7607 -7608 0
-7444 -7608 7609 0
7444 -7609 0
7608 -7609 0
-7596 -7609 7610 0
7596 -7610 0
7609 -7610 0
7610 7611 0
-7610 -7611 0
-7284 -7491 7612 0
7284 -7612 0
7491 -7612 0
7612 7613 0
-7612 -7613 0
-7398 -7612 7614 0
7398 -7614 0
7612 -7614 0
-7276 -7614 7615 0
7276 -7615 0
7614 -7615 0
7615 7616 0
-7615 -7616 0
-7463 -7616 7617 0
7463 -7617 0
7616 -7617 0
-7283 -7284 7618 0
7283 -7618 0
7284 -7618 0
7618 7619 0
-7618 -7619 0
-7366 -7619 7620 0
7366 -7620 0
7619 -7620 0
-7557 -7620 7621 0
7557 -7621 0
7620 -7621 0
-7278 -7279 7622 0
7278 -7622 0
7279 -7622 0
7622 7623 0
-7622 -7623 0
-7282 -7623 7624 0
7282 -7624 0
7623 -7624 0
-7621 -7624 7625 0
7621 -7625 0
7624 -7625 0
7625 7626 0
-7625 -7626 0
-7283 -7292 7627 0
7283 -7627 0
7292 -7627 0
-7293 -7311 7628 0
7293 -7628 0
7311 -7628 0
-7285 -7628 7629 0
7285 -7629 0
7628 -7629 0
-7335 -7629 7630 0
7335 -7630 0
7629 -7630 0
-7627 -7630 7631 0
7627 -7631 0
7630 -7631 0
7631 7632 0
-7631 -7632 0
-7626 -7632 7633 0
7626 -7633 0
7632 -7633 0
-7617 -7633 7634 0
7617 -7634 0
7633 -7634 0
-7365 -7448 7635 0
7365 -7635 0
7448 -7635 0
-7299 -7635 7636 0
7299 -7636 0
7635 -7636 0
7636 7637 0
-7636 -7637 0
-7634 -7637 7638 0
7634 -7638 0
7637 -7638 0
7638 7639 0
-7638 -7639 0
-7302 -7360 7640 0
7302 -7640 0
7360 -7640 0
-7348 -7640 7641 0
7348 -7641 0
7640 -7641 0
-7395 -7641 7642 0
7395 -7642 0
7641 -7642 0
7642 7643 0
-7642 -7643 0
-7518 -7641 7644 0
7518 -7644 0
7641 -7644 0
7644 7645 0
-7644 -7645 0
-7643 -7645 7646 0
7643 -7646 0
7645 -7646 0
7646 7647 0
-7646 -7647 0
-7623 -7647 7648 0
7623 -7648 0
7647 -7648 0
7648 7649 0
-7648 -7649 0
-7632 -7649 7650 0
7632 -7650 0
7649 -7650 0
-7400 -7413 7651 0
7400 -7651 0
7413 -7651 0
-7395 -7651 7652 0
7395 -7652 0
7651 -7652 0
7652 7653 0
-7652 -7653 0
-7275 -7652 7654 0
7275 -7654 0
7652 -7654 0
7654 7655 0
-7654 -7655 0
-7474 -7655 7656 0
7474 -7656 0
7655 -7656 0
-7467 -7656 7657 0
7467 -7657 0
7656 -7657 0
-7650 -7657 7658 0
7650 -7658 0
7657 -7658 0
7658 7659 0
-7658 -7659 0
-7444 -7607 7660 0
7444 -7660 0
7607 -7660 0
7660 7661 0
-7660 -7661 0
-7265 -7541 7662 0
7265 -7662 0
7541 -7662 0
7662 7663 0
-7662 -7663 0
-7282 -7318 7664 0
7282 -7664 0
7318 -7664 0
7664 7665 0
-7664 -7665 0
-7663 -7665 7666 0
7663 -7666 0
7665 -7666 0
-7296 -7588 7667 0
7296 -7667 0
7588 -7667 0
7667 7668 0
-7667 -7668 0
-7586 -7668 7669 0
7586 -7669 0
7668 -7669 0
-7666 -7669 7670 0
7666 -7670 0
7669 -7670 0
7670 7671 0
-7670 -7671 0
-7281 -7318 7672 0
7281 -7672 0
7318 -7672 0
7672 7673 0
-7672 -7673 0
-7298 -7339 7674 0
7298 -7674 0
7339 -7674 0
7674 7675 0
-7674 -7675 0
-7364 -7675 7676 0
7364 -7676 0
7675 -7676 0
-7673 -7676 7677 0
7673 -7677 0
7676 -7677 0
7677 7678 0
-7677 -7678 0
-7280 -7328 7679 0
7280 -7679 0
7328 -7679 0
7679 7680 0
-7679 -7680 0
-7474 -7680 7681 0
7474 -7681 0
7680 -7681 0
-7267 -7383 7682 0
7267 -7682 0
7383 -7682 0
7682 7683 0
-7682 -7683 0
-7269 -7385 7684 0
7269 -7684 0
7385 -7684 0
7684 7685 0
-7684 -7685 0
-7683 -7685 7686 0
7683 -7686 0
7685 -7686 0
7686 7687 0
-7686 -7687 0
-7628 -7687 7688 0
7628 -7688 0
7687 -7688 0
-7455 -7688 7689 0
7455 -7689 0
7688 -7689 0
7689 7690 0
-7689 -7690 0
-7558 -7632 7691 0
7558 -7691 0
7632 -7691 0
-7690 -7691 7692 0
7690 -7692 0
7691 -7692 0
-7681 -7692 7693 0
7681 -7693 0
7692 -7693 0
7693 7694 0
-7693 -7694 0
-7262 -7337 7695 0
7262 -7695 0
7337 -7695 0
7695 7696 0
-7695 -7696 0
-7580 -7696 7697 0
7580 -7697 0
7696 -7697 0
7697 7698 0
-7697 -7698 0
-7581 -7698 7699 0
7581 -7699 0
7698 -7699 0
7699 7700 0
-7699 -7700 0
-7451 -7700 7701 0
7451 -7701 0
7700 -7701 0
-7301 -7442 7702 0
7301 -7702 0
7442 -7702 0
7702 7703 0
-7702 -7703 0
-7319 -7703 7704 0
7319 -7704 0
7703 -7704 0
-7444 -7704 7705 0
7444 -7705 0
7704 -7705 0
-7701 -7705 7706 0
7701 -7706 0
7705 -7706 0
7706 7707 0
-7706 -7707 0
-7319 -7598 7708 0
7319 -7708 0
7598 -7708 0
7708 7709 0
-7708 -7709 0
-7280 -7471 7710 0
7280 -7710 0
7471 -7710 0
-7302 -7710 7711 0
7302 -7711 0
7710 -7711 0
7711 7712 0
-7711 -7712 0
-7348 -7623 7713 0
7348 -7713 0
7623 -7713 0
7713 7714 0
-7713 -7714 0
-7342 -7714 7715 0
7342 -7715 0
7714 -7715 0
7715 7716 0
-7715 -7716 0
-7286 -7716 7717 0
7286 -7717 0
7716 -7717 0
7717 7718 0
-7717 -7718 0
-7712 -7718 7719 0
7712 -7719 0
7718 -7719 0
-7368 -7623 7720 0
7368 -7720 0
7623 -7720 0
7720 7721 0
-7720 -7721 0
-7489 -7721 7722 0
7489 -7722 0
7721 -7722 0
7722 7723 0
-7722 -7723 0
-7284 -7723 7724 0
7284 -7724 0
7723 -7724 0
7724 7725 0
-7724 -7725 0
-7333 -7324 7726 0
7333 -7726 0
7324 -7726 0
7726 7727 0
-7726 -7727 0
-7725 -7727 7728 0
7725 -7728 0
7727 -7728 0
-7444 -7728 7729 0
7444 -7729 0
7728 -7729 0
-7719 -7729 7730 0
7719 -7730 0
7729 -7730 0
7730 7731 0
-7730 -7731 0
-7296 -7529 7732 0
7296 -7732 0
7529 -7732 0
-7270 -7292 7733 0
7270 -7733 0
7292 -7733 0
-7732 -7733 7734 0
7732 -7734 0
7733 -7734 0
7734 7735 0
-7734 -7735 0
-7260 -7312 7736 0
7260 -7736 0
7312 -7736 0
7736 7737 0
-7736 -7737 0
-7735 -7737 7738 0
7735 -7738 0
7737 -7738 0
-7268 -7282 7739 0
7268 -7739 0
7282 -7739 0
7739 7740 0
-7739 -7740 0
-7285 -7296 7741 0
7285 -7741 0
7296 -7741 0
7741 7742 0
-7741 -7742 0
-7740 -7742 7743 0
7740 -7743 0
7742 -7743 0
7743 7744 0
-7743 -7744 0
-7530 -7744 7745 0
7530 -7745 0
7744 -7745 0
7745 7746 0
-7745 -7746 0
-7727 -7746 7747 0
7727 -7747 0
7746 -7747 0
-7368 -7627 7748 0
7368 -7748 0
7627 -7748 0
-7294 -7748 7749 0
7294 -7749 0
7748 -7749 0
7749 7750 0
-7749 -7750 0
-7444 -7750 7751 0
7444 -7751 0
7750 -7751 0
-7747 -7751 7752 0
7747 -7752 0
7751 -7752 0
-7738 -7752 7753 0
7738 -7753 0
7752 -7753 0
7753 7754 0
-7753 -7754 0
-7262 -7333 7755 0
7262 -7755 0
7333 -7755 0
7755 7756 0
-7755 -7756 0
-7300 -7335 7757 0
7300 -7757 0
7335 -7757 0
-7273 -7757 7758 0
7273 -7758 0
7757 -7758 0
7758 7759 0
-7758 -7759 0
-7756 -7759 7760 0
7756 -7760 0
7759 -7760 0
7760 7761 0
-7760 -7761 0
-7439 -7761 7762 0
7439 -7762 0
7761 -7762 0
7762 7763 0
-7762 -7763 0
-7499 -7613 7764 0
7499 -7764 0
7613 -7764 0
7764 7765 0
-7764 -7765 0
-7289 -7765 7766 0
7289 -7766 0
7765 -7766 0
7766 7767 0
-7766 -7767 0
-7653 -7767 7768 0
7653 -7768 0
7767 -7768 0
-7282 -7559 7769 0
7282 -7769 0
7559 -7769 0
-7620 -7769 7770 0
7620 -7770 0
7769 -7770 0
7770 7771 0
-7770 -7771 0
-7347 -7550 7772 0
7347 -7772 0
7550 -7772 0
-7641 -7772 7773 0
7641 -7773 0
7772 -7773 0
-7292 -7773 7774 0
7292 -7774 0
7773 -7774 0
7774 7775 0
-7774 -7775 0
-7771 -7775 7776 0
7771 -7776 0
7775 -7776 0
-7632 -7690 7777 0
7632 -7777 0
7690 -7777 0
-7776 -7777 7778 0
7776 -7778 0
7777 -7778 0
-7768 -7778 7779 0
7768 -7779 0
7778 -7779 0
-7763 -7779 7780 0
7763 -7780 0
7779 -7780 0
7780 7781 0
-7780 -7781 0
-7294 -7282 7782 0
7294 -7782 0
7282 -7782 0
-7283 -7278 7783 0
7283 -7783 0
7278 -7783 0
-7782 -7783 7784 0
7782 -7784 0
7783 -7784 0
7784 7785 0
-7784 -7785 0
-7289 -7296 7786 0
7289 -7786 0
7296 -7786 0
-7455 -7786 7787 0
7455 -7787 0
7786 -7787 0
-7276 -7787 7788 0
7276 -7788 0
7787 -7788 0
7788 7789 0
-7788 -7789 0
-7785 -7789 7790 0
7785 -7790 0
7789 -7790 0
7790 7791 0
-7790 -7791 0
-7268 -7791 7792 0
7268 -7792 0
7791 -7792 0
-7628 -7792 7793 0
7628 -7793 0
7792 -7793 0
-7333 -7793 7794 0
7333 -7794 0
7793 -7794 0
7794 7795 0
-7794 -7795 0
-7420 -7500 7796 0
7420 -7796 0
7500 -7796 0
7796 7797 0
-7796 -7797 0
-7795 -7797 7798 0
7795 -7798 0
7797 -7798 0
-7296 -7772 7799 0
7296 -7799 0
7772 -7799 0
7799 7800 0
-7799 -7800 0
-7526 -7800 7801 0
7526 -7801 0
7800 -7801 0
7801 7802 0
-7801 -7802 0
-7532 -7802 7803 0
7532 -7803 0
7802 -7803 0
7803 7804 0
-7803 -7804 0
-7798 -7804 7805 0
7798 -7805 0
7804 -7805 0
7805 7806 0
-7805 -7806 0
-7291 -7306 7807 0
7291 -7807 0
7306 -7807 0
-7292 -7644 7808 0
7292 -7808 0
7644 -7808 0
7808 7809 0
-7808 -7809 0
-7563 -7769 7810 0
7563 -7810 0
7769 -7810 0
7810 7811 0
-7810 -7811 0
-7632 -7811 7812 0
7632 -7812 0
7811 -7812 0
-7274 -7318 7813 0
7274 -7813 0
7318 -7813 0
7813 7814 0
-7813 -7814 0
-7700 -7814 7815 0
7700 -7815 0
7814 -7815 0
7815 7816 0
-7815 -7816 0
-7271 -7816 7817 0
7271 -7817 0
7816 -7817 0
7817 7818 0
-7817 -7818 0
-7763 -7818 7819 0
7763 -7819 0
7818 -7819 0
-7812 -7819 7820 0
7812 -7820 0
7819 -7820 0
-7809 -7820 7821 0
7809 -7821 0
7820 -7821 0
7821 7822 0
-7821 -7822 0
-7271 -7597 7823 0
7271 -7823 0
7597 -7823 0
7823 7824 0
-7823 -7824 0
-7795 -7824 7825 0
7795 -7825 0
7824 -7825 0
-7293 -7644 7826 0
7293 -7826 0
7644 -7826 0
-7278 -7826 7827 0
7278 -7827 0
7826 -7827 0
7827 7828 0
-7827 -7828 0
-7797 -7828 7829 0
7797 -7829 0
7828 -7829 0
-7825 -7829 7830 0
7825 -7830 0
7829 -7830 0
7830 7831 0
-7830 -7831 0
-7291 -7279 7832 0
7291 -7832 0
7279 -7832 0
-7291 -7293 7833 0
7291 -7833 0
7293 -7833 0
-7263 -7300 7834 0
7263 -7834 0
7300 -7834 0
-7726 -7834 7835 0
7726 -7835 0
7834 -7835 0
-7553 -7786 7836 0
7553 -7836 0
7786 -7836 0
7836 7837 0
-7836 -7837 0
-7797 -7837 7838 0
7797 -7838 0
7837 -7838 0
7838 7839 0
-7838 -7839 0
-7840 7839 0
7840 -7839 0
-7841 7835 0
7841 -7835 0
-7842 7833 0
7842 -7833 0
-7843 7832 0
7843 -7832 0
-7844 7831 0
7844 -7831 0
-7845 7822 0
7845 -7822 0
-7846 7807 0
7846 -7807 0
-7847 7806 0
7847 -7806 0
-7848 7781 0
7848 -7781 0
-7849 7754 0
7849 -7754 0
-7850 7731 0
7850 -7731 0
-7851 7709 0
7851 -7709 0
-7852 7707 0
7852 -7707 0
-7853 7694 0
7853 -7694 0
-7854 7318 0
7854 -7318 0
-7855 7678 0
7855 -7678 0
-7856 7671 0
7856 -7671 0
-7857 7328 0
7857 -7328 0
-7858 7661 0
7858 -7661 0
-7859 7659 0
7859 -7659 0
-7860 7639 0
7860 -7639 0
-7861 7611 0
7861 -7611 0
-7862 7593 0
7862 -7593 0
-7863 7575 0
7863 -7575 0
-7864 7548 0
7864 -7548 0
-7865 7486 0
7865 -7486 0
-7866 7454 0
7866 -7454 0
-7867 7429 0
7867 -7429 0
-7868 7382 0
7868 -7382 0
7870 7886 0
-7870 -7886 0
7871 7887 0
-7871 -7887 0
7872 7888 0
-7872 -7888 0
7873 7889 0
-7873 -7889 0
7874 7890 0
-7874 -7890 0
7876 7891 0
-7876 -7891 0
7878 7892 0
-7878 -7892 0
7879 7893 0
-7879 -7893 0
7880 7894 0
-7880 -7894 0
7881 7895 0
-7881 -7895 0
7882 7896 0
-7882 -7896 0
7883 7897 0
-7883 -7897 0
7884 7898 0
-7884 -7898 0
7885 7899 0
-7885 -7899 0
7868 7900 0
-7868 -7900 0
7867 7901 0
-7867 -7901 0
7866 7902 0
-7866 -7902 0
7865 7903 0
-7865 -7903 0
7864 7904 0
-7864 -7904 0
7863 7905 0
-7863 -7905 0
-7868 -7902 7906 0
7868 -7906 0
7902 -7906 0
-7903 -7906 7907 0
7903 -7907 0
7906 -7907 0
-7895 -7896 7908 0
7895 -7908 0
7896 -7908 0
7908 7909 0
-7908 -7909 0
-7901 -7909 7910 0
7901 -7910 0
7909 -7910 0
-7907 -7910 7911 0
7907 -7911 0
7910 -7911 0
-7863 -7911 7912 0
7863 -7912 0
7911 -7912 0
7912 7913 0
-7912 -7913 0
-7901 -7907 7914 0
7901 -7914 0
7907 -7914 0
-7888 -7914 7915 0
7888 -7915 0
7914 -7915 0
-7886 -7915 7916 0
7886 -7916 0
7915 -7916 0
7916 7917 0
-7916 -7917 0
-7913 -7917 7918 0
7913 -7918 0
7917 -7918 0
-7904 -7907 7919 0
7904 -7919 0
7907 -7919 0
-7867 -7905 7920 0
7867 -7920 0
7905 -7920 0
-7919 -7920 7921 0
7919 -7921 0
7920 -7921 0
7921 7922 0
-7921 -7922 0
-7897 -7898 7923 0
7897 -7923 0
7898 -7923 0
7923 7924 0
-7923 -7924 0
-7875 -7902 7925 0
7875 -7925 0
7902 -7925 0
7925 7926 0
-7925 -7926 0
-7900 -7901 7927 0
7900 -7927 0
7901 -7927 0
-7865 -7905 7928 0
7865 -7928 0
7905 -7928 0
-7927 -7928 7929 0
7927 -7929 0
7928 -7929 0
-7904 -7929 7930 0
7904 -7930 0
7929 -7930 0
-7925 -7930 7931 0
7925 -7931 0
7930 -7931 0
-7924 -7931 7932 0
7924 -7932 0
7931 -7932 0
7932 7933 0
-7932 -7933 0
-7922 -7933 7934 0
7922 -7934 0
7933 -7934 0
-7918 -7934 7935 0
7918 -7935 0
7934 -7935 0
-7904 -7905 7936 0
7904 -7936 0
7905 -7936 0
7936 7937 0
-7936 -7937 0
-7864 -7863 7938 0
7864 -7938 0
7863 -7938 0
7938 7939 0
-7938 -7939 0
-7937 -7939 7940 0
7937 -7940 0
7939 -7940 0
-7865 -7906 7941 0
7865 -7941 0
7906 -7941 0
-7940 -7941 7942 0
7940 -7942 0
7941 -7942 0
7942 7943 0
-7942 -7943 0
-7883 -7919 7944 0
7883 -7944 0
7919 -7944 0
7944 7945 0
-7944 -7945 0
-7905 -7944 7946 0
7905 -7946 0
7944 -7946 0
7946 7947 0
-7946 -7947 0
-7943 -7947 7948 0
7943 -7948 0
7947 -7948 0
-7872 -7873 7949 0
7872 -7949 0
7873 -7949 0
7949 7950 0
-7949 -7950 0
-7899 -7919 7951 0
7899 -7951 0
7919 -7951 0
7951 7952 0
-7951 -7952 0
-7904 -7863 7953 0
7904 -7953 0
7863 -7953 0
-7906 -7953 7954 0
7906 -7954 0
7953 -7954 0
7954 7955 0
-7954 -7955 0
-7952 -7955 7956 0
7952 -7956 0
7955 -7956 0
7956 7957 0
-7956 -7957 0
-7950 -7957 7958 0
7950 -7958 0
7957 -7958 0
7958 7959 0
-7958 -7959 0
-7883 -7911 7960 0
7883 -7960 0
7911 -7960 0
7960 7961 0
-7960 -7961 0
-7959 -7961 7962 0
7959 -7962 0
7961 -7962 0
-7897 -7901 7963 0
7897 -7963 0
7901 -7963 0
7963 7964 0
-7963 -7964 0
-7940 -7963 7965 0
7940 -7965 0
7963 -7965 0
-7906 -7965 7966 0
7906 -7966 0
7965 -7966 0
7966 7967 0
-7966 -7967 0
-7870 -7871 7968 0
7870 -7968 0
7871 -7968 0
7968 7969 0
-7968 -7969 0
-7905 -7907 7970 0
7905 -7970 0
7907 -7970 0
-7885 -7970 7971 0
7885 -7971 0
7970 -7971 0
7971 7972 0
-7971 -7972 0
-7864 -7905 7973 0
7864 -7973 0
7905 -7973 0
-7902 -7973 7974 0
7902 -7974 0
7973 -7974 0
-7868 -7974 7975 0
7868 -7975 0
7974 -7975 0
7975 7976 0
-7975 -7976 0
-7972 -7976 7977 0
7972 -7977 0
7976 -7977 0
7977 7978 0
-7977 -7978 0
-7969 -7978 7979 0
7969 -7979 0
7978 -7979 0
7979 7980 0
-7979 -7980 0
-7967 -7980 7981 0
7967 -7981 0
7980 -7981 0
-7962 -7981 7982 0
7962 -7982 0
7981 -7982 0
-7948 -7982 7983 0
7948 -7983 0
7982 -7983 0
-7935 -7983 7984 0
7935 -7984 0
7983 -7984 0
7984 7985 0
-7984 -7985 0
-7887 -7973 7986 0
7887 -7986 0
7973 -7986 0
7986 7987 0
-7986 -7987 0
-7889 -7953 7988 0
7889 -7988 0
7953 -7988 0
7988 7989 0
-7988 -7989 0
-7987 -7989 7990 0
7987 -7990 0
7989 -7990 0
7990 7991 0
-7990 -7991 0
-7906 -7991 7992 0
7906 -7992 0
7991 -7992 0
7992 7993 0
-7992 -7993 0
-7943 -7993 7994 0
7943 -7994 0
7993 -7994 0
7994 7995 0
-7994 -7995 0
-7867 -7995 7996 0
7867 -7996 0
7995 -7996 0
7996 7997 0
-7996 -7997 0
-7872 -7889 7998 0
7872 -7998 0
7889 -7998 0
7998 7999 0
-7998 -7999 0
-7878 -7999 8000 0
7878 -8000 0
7999 -8000 0
8000 8001 0
-8000 -8001 0
-7901 -7908 8002 0
7901 -8002 0
7908 -8002 0
-7944 -8002 8003 0
7944 -8003 0
8002 -8003 0
-7905 -8003 8004 0
7905 -8004 0
8003 -8004 0
-7871 -8004 8005 0
7871 -8005 0
8004 -8005 0
8005 8006 0
-8005 -8006 0
-8001 -8005 8007 0
8001 -8007 0
8005 -8007 0
-7885 -8007 8008 0
7885 -8008 0
8007 -8008 0
8008 8009 0
-8008 -8009 0
-7997 -8009 8010 0
7997 -8010 0
8009 -8010 0
-7890 -7921 8011 0
7890 -8011 0
7921 -8011 0
8011 8012 0
-8011 -8012 0
-7870 -7887 8013 0
7870 -8013 0
7887 -8013 0
8013 8014 0
-8013 -8014 0
-7879 -8014 8015 0
7879 -8015 0
8014 -8015 0
8015 8016 0
-8015 -8016 0
-8004 -8016 8017 0
8004 -8017 0
8016 -8017 0
-7898 -7899 8018 0
7898 -8018 0
7899 -8018 0
8018 8019 0
-8018 -8019 0
-7884 -7885 8020 0
7884 -8020 0
7885 -8020 0
8020 8021 0
-8020 -8021 0
-8019 -8021 8022 0
8019 -8022 0
8021 -8022 0
8022 8023 0
-8022 -8023 0
-7873 -8022 8024 0
7873 -8024 0
8022 -8024 0
8024 8025 0
-8024 -8025 0
-8000 -8025 8026 0
8000 -8026 0
8025 -8026 0
8026 8027 0
-8026 -8027 0
-8017 -8027 8028 0
8017 -8028 0
8027 -8028 0
8028 8029 0
-8028 -8029 0
-8012 -8029 8030 0
8012 -8030 0
8029 -8030 0
-8010 -8030 8031 0
8010 -8031 0
8030 -8031 0
8031 8032 0
-8031 -8032 0
-7905 -7908 8033 0
7905 -8033 0
7908 -8033 0
-7949 -8033 8034 0
7949 -8034 0
8033 -8034 0
8034 8035 0
-8034 -8035 0
-7902 -8035 8036 0
7902 -8036 0
8035 -8036 0
8036 8037 0
-8036 -8037 0
-7904 -8037 8038 0
7904 -8038 0
8037 -8038 0
-7927 -8038 8039 0
7927 -8039 0
8038 -8039 0
-7903 -8039 8040 0
7903 -8040 0
8039 -8040 0
8040 8041 0
-8040 -8041 0
-7866 -7927 8042 0
7866 -8042 0
7927 -8042 0
-7953 -8042 8043 0
7953 -8043 0
8042 -8043 0
8043 8044 0
-8043 -8044 0
-7903 -8042 8045 0
7903 -8045 0
8042 -8045 0
-7863 -8045 8046 0
7863 -8046 0
8045 -8046 0
8046 8047 0
-8046 -8047 0
-7891 -8046 8048 0
7891 -8048 0
8046 -8048 0
8048 8049 0
-8048 -8049 0
-8044 -8049 8050 0
8044 -8050 0
8049 -8050 0
-7864 -7929 8051 0
7864 -8051 0
7929 -8051 0
8051 8052 0
-8051 -8052 0
-7866 -8051 8053 0
7866 -8053 0
8051 -8053 0
8053 8054 0
-8053 -8054 0
-8050 -8054 8055 0
8050 -8055 0
8054 -8055 0
-8041 -8055 8056 0
8041 -8056 0
8055 -8056 0
8056 8057 0
-8056 -8057 0
-7895 -7883 8058 0
7895 -8058 0
7883 -8058 0
-7896 -8058 8059 0
7896 -8059 0
8058 -8059 0
8059 8060 0
-8059 -8060 0
-7901 -8060 8061 0
7901 -8061 0
8060 -8061 0
8061 8062 0
-8061 -8062 0
-7864 -8062 8063 0
7864 -8063 0
8062 -8063 0
-7970 -8063 8064 0
7970 -8064 0
8063 -8064 0
-8013 -8064 8065 0
8013 -8065 0
8064 -8065 0
8065 8066 0
-8065 -8066 0
-7863 -8062 8067 0
7863 -8067 0
8062 -8067 0
-7919 -8067 8068 0
7919 -8068 0
8067 -8068 0
-7998 -8068 8069 0
7998 -8069 0
8068 -8069 0
8069 8070 0
-8069 -8070 0
-8066 -8070 8071 0
8066 -8071 0
8070 -8071 0
-7901 -7904 8072 0
7901 -8072 0
7904 -8072 0
-7902 -7903 8073 0
7902 -8073 0
7903 -8073 0
-8072 -8073 8074 0
8072 -8074 0
8073 -8074 0
-7900 -8034 8075 0
7900 -8075 0
8034 -8075 0
-8074 -8075 8076 0
8074 -8076 0
8075 -8076 0
8076 8077 0
-8076 -8077 0
-7929 -7926 8078 0
7929 -8078 0
7926 -8078 0
8078 8079 0
-8078 -8079 0
-8077 -8079 8080 0
8077 -8080 0
8079 -8080 0
-7864 -8046 8081 0
7864 -8081 0
8046 -8081 0
8081 8082 0
-8081 -8082 0
-7890 -7942 8083 0
7890 -8083 0
7942 -8083 0
8083 8084 0
-8083 -8084 0
-8082 -8084 8085 0
8082 -8085 0
8084 -8085 0
-8080 -8085 8086 0
8080 -8086 0
8085 -8086 0
-8071 -8086 8087 0
8071 -8087 0
8086 -8087 0
-8052 -8087 8088 0
8052 -8088 0
8087 -8088 0
8088 8089 0
-8088 -8089 0
-7873 -7878 8090 0
7873 -8090 0
7878 -8090 0
-7883 -7970 8091 0
7883 -8091 0
7970 -8091 0
8091 8092 0
-8091 -8092 0
-7870 -8091 8093 0
7870 -8093 0
8091 -8093 0
-8002 -8093 8094 0
8002 -8094 0
8093 -8094 0
-7904 -8094 8095 0
7904 -8095 0
8094 -8095 0
8095 8096 0
-8095 -8096 0
-8006 -8096 8097 0
8006 -8097 0
8096 -8097 0
8097 8098 0
-8097 -8098 0
-8090 -8098 8099 0
8090 -8099 0
8098 -8099 0
8099 8100 0
-8099 -8100 0
-7893 -8004 8101 0
7893 -8101 0
8004 -8101 0
8101 8102 0
-8101 -8102 0
-8090 -8101 8103 0
8090 -8103 0
8101 -8103 0
8103 8104 0
-8103 -8104 0
-8100 -8104 8105 0
8100 -8105 0
8104 -8105 0
-7890 -7897 8106 0
7890 -8106 0
7897 -8106 0
8106 8107 0
-8106 -8107 0
-7883 -7909 8108 0
7883 -8108 0
7909 -8108 0
8108 8109 0
-8108 -8109 0
-8107 -8109 8110 0
8107 -8110 0
8109 -8110 0
8110 8111 0
-8110 -8111 0
-7901 -8111 8112 0
7901 -8112 0
8111 -8112 0
8112 8113 0
-8112 -8113 0
-7903 -8113 8114 0
7903 -8114 0
8113 -8114 0
-7964 -7969 8115 0
7964 -8115 0
7969 -8115 0
8115 8116 0
-8115 -8116 0
-8114 -8116 8117 0
8114 -8117 0
8116 -8117 0
8117 8118 0
-8117 -8118 0
-7975 -8118 8119 0
7975 -8119 0
8118 -8119 0
8119 8120 0
-8119 -8120 0
-7888 -7873 8121 0
7888 -8121 0
7873 -8121 0
-8068 -8121 8122 0
8068 -8122 0
8121 -8122 0
8122 8123 0
-8122 -8123 0
-8120 -8123 8124 0
8120 -8124 0
8123 -8124 0
-8105 -8124 8125 0
8105 -8125 0
8124 -8125 0
-7899 -7998 8126 0
7899 -8126 0
7998 -8126 0
8126 8127 0
-8126 -8127 0
-7885 -8013 8128 0
7885 -8128 0
8013 -8128 0
8128 8129 0
-8128 -8129 0
-8127 -8129 8130 0
8127 -8130 0
8129 -8130 0
8130 8131 0
-8130 -8131 0
-7897 -7970 8132 0
7897 -8132 0
7970 -8132 0
-7896 -8132 8133 0
7896 -8133 0
8132 -8133 0
-7881 -8133 8134 0
7881 -8134 0
8133 -8134 0
-8072 -8134 8135 0
8072 -8135 0
8134 -8135 0
-8131 -8135 8136 0
8131 -8136 0
8135 -8136 0
8136 8137 0
-8136 -8137 0
-7890 -8053 8138 0
7890 -8138 0
8053 -8138 0
8138 8139 0
-8138 -8139 0
-8137 -8139 8140 0
8137 -8140 0
8139 -8140 0
-7864 -7912 8141 0
7864 -8141 0
7912 -8141 0
8141 8142 0
-8141 -8142 0
-7901 -7974 8143 0
7901 -8143 0
7974 -8143 0
-7865 -8143 8144 0
7865 -8144 0
8143 -8144 0
-7969 -8144 8145 0
7969 -8145 0
8144 -8145 0
8145 8146 0
-8145 -8146 0
-8142 -8146 8147 0
8142 -8147 0
8146 -8147 0
-8140 -8147 8148 0
8140 -8148 0
8147 -8148 0
-8047 -8148 8149 0
8047 -8149 0
8148 -8149 0
-8125 -8149 8150 0
8125 -8150 0
8149 -8150 0
8150 8151 0
-8150 -8151 0
-7888 -7889 8152 0
7888 -8152 0
7889 -8152 0
8152 8153 0
-8152 -8153 0
-7878 -8152 8154 0
7878 -8154 0
8152 -8154 0
8154 8155 0
-8154 -8155 0
-7879 -8005 8156 0
7879 -8156 0
8005 -8156 0
-8155 -8156 8157 0
8155 -8157 0
8156 -8157 0
8157 8158 0
-8157 -8158 0
-8142 -8158 8159 0
8142 -8159 0
8158 -8159 0
-8072 -8132 8160 0
8072 -8160 0
8132 -8160 0
8160 8161 0
-8160 -8161 0
-7895 -8160 8162 0
7895 -8162 0
8160 -8162 0
-8131 -8162 8163 0
8131 -8163 0
8162 -8163 0
8163 8164 0
-8163 -8164 0
-8041 -8164 8165 0
8041 -8165 0
8164 -8165 0
-7886 -7871 8166 0
7886 -8166 0
7871 -8166 0
-8064 -8166 8167 0
8064 -8167 0
8166 -8167 0
8167 8168 0
-8167 -8168 0
-7950 -7964 8169 0
7950 -8169 0
7964 -8169 0
8169 8170 0
-8169 -8170 0
-8114 -8170 8171 0
8114 -8171 0
8170 -8171 0
8171 8172 0
-8171 -8172 0
-7954 -8172 8173 0
7954 -8173 0
8172 -8173 0
8173 8174 0
-8173 -8174 0
-8168 -8174 8175 0
8168 -8175 0
8174 -8175 0
-8165 -8175 8176 0
8165 -8176 0
8175 -8176 0
-8159 -8176 8177 0
8159 -8177 0
8176 -8177 0
8177 8178 0
-8177 -8178 0
-7941 -7973 8179 0
7941 -8179 0
7973 -8179 0
8179 8180 0
-8179 -8180 0
-7922 -8180 8181 0
7922 -8181 0
8180 -8181 0
-7897 -7953 8182 0
7897 -8182 0
7953 -8182 0
8182 8183 0
-8182 -8183 0
-7901 -7906 8184 0
7901 -8184 0
7906 -8184 0
-8182 -8184 8185 0
8182 -8185 0
8184 -8185 0
8185 8186 0
-8185 -8186 0
-7885 -7903 8187 0
7885 -8187 0
7903 -8187 0
-8185 -8187 8188 0
8185 -8188 0
8187 -8188 0
8188 8189 0
-8188 -8189 0
-7897 -7868 8190 0
7897 -8190 0
7868 -8190 0
-8143 -8190 8191 0
8143 -8191 0
8190 -8191 0
-7885 -8191 8192 0
7885 -8192 0
8191 -8192 0
8192 8193 0
-8192 -8193 0
-8189 -8193 8194 0
8189 -8194 0
8193 -8194 0
-8181 -8194 8195 0
8181 -8195 0
8194 -8195 0
8195 8196 0
-8195 -8196 0
-7941 -7953 8197 0
7941 -8197 0
7953 -8197 0
8197 8198 0
-8197 -8198 0
-7922 -8198 8199 0
7922 -8199 0
8198 -8199 0
-7903 -8191 8200 0
7903 -8200 0
8191 -8200 0
8200 8201 0
-8200 -8201 0
-8186 -8201 8202 0
8186 -8202 0
8201 -8202 0
8202 8203 0
-8202 -8203 0
-7899 -8203 8204 0
7899 -8204 0
8203 -8204 0
8204 8205 0
-8204 -8205 0
-7903 -7864 8206 0
7903 -8206 0
7864 -8206 0
8206 8207 0
-8206 -8207 0
-7905 -8207 8208 0
7905 -8208 0
8207 -8208 0
-8042 -8208 8209 0
8042 -8209 0
8208 -8209 0
8209 8210 0
-8209 -8210 0
-8205 -8210 8211 0
8205 -8211 0
8210 -8211 0
-8047 -8211 8212 0
8047 -8212 0
8211 -8212 0
-8199 -8212 8213 0
8199 -8213 0
8212 -8213 0
8213 8214 0
-8213 -8214 0
-7887 -8094 8215 0
7887 -8215 0
8094 -8215 0
8215 8216 0
-8215 -8216 0
-8001 -8215 8217 0
8001 -8217 0
8215 -8217 0
-7879 -8217 8218 0
7879 -8218 0
8217 -8218 0
8218 8219 0
-8218 -8219 0
-8066 -8219 8220 0
8066 -8220 0
8219 -8220 0
-7886 -7887 8221 0
7886 -8221 0
7887 -8221 0
8221 8222 0
-8221 -8222 0
-7969 -8222 8223 0
7969 -8223 0
8222 -8223 0
-8160 -8223 8224 0
8160 -8224 0
8223 -8224 0
-7881 -7882 8225 0
7881 -8225 0
7882 -8225 0
8225 8226 0
-8225 -8226 0
-7885 -8226 8227 0
7885 -8227 0
8226 -8227 0
-8224 -8227 8228 0
8224 -8228 0
8227 -8228 0
8228 8229 0
-8228 -8229 0
-7886 -7895 8230 0
7886 -8230 0
7895 -8230 0
-7896 -7914 8231 0
7896 -8231 0
7914 -8231 0
-7888 -8231 8232 0
7888 -8232 0
8231 -8232 0
-7938 -8232 8233 0
7938 -8233 0
8232 -8233 0
-8230 -8233 8234 0
8230 -8234 0
8233 -8234 0
8234 8235 0
-8234 -8235 0
-8229 -8235 8236 0
8229 -8236 0
8235 -8236 0
-8220 -8236 8237 0
8220 -8237 0
8236 -8237 0
-7968 -8051 8238 0
7968 -8238 0
8051 -8238 0
-7902 -8238 8239 0
7902 -8239 0
8238 -8239 0
8239 8240 0
-8239 -8240 0
-8237 -8240 8241 0
8237 -8241 0
8240 -8241 0
8241 8242 0
-8241 -8242 0
-7905 -7963 8243 0
7905 -8243 0
7963 -8243 0
-7951 -8243 8244 0
7951 -8244 0
8243 -8244 0
-7998 -8244 8245 0
7998 -8245 0
8244 -8245 0
8245 8246 0
-8245 -8246 0
-8121 -8244 8247 0
8121 -8247 0
8244 -8247 0
8247 8248 0
-8247 -8248 0
-8246 -8248 8249 0
8246 -8249 0
8248 -8249 0
8249 8250 0
-8249 -8250 0
-8226 -8250 8251 0
8226 -8251 0
8250 -8251 0
8251 8252 0
-8251 -8252 0
-8235 -8252 8253 0
8235 -8253 0
8252 -8253 0
-8003 -8016 8254 0
8003 -8254 0
8016 -8254 0
-7998 -8254 8255 0
7998 -8255 0
8254 -8255 0
8255 8256 0
-8255 -8256 0
-7878 -8255 8257 0
7878 -8257 0
8255 -8257 0
8257 8258 0
-8257 -8258 0
-8077 -8258 8259 0
8077 -8259 0
8258 -8259 0
-8070 -8259 8260 0
8070 -8260 0
8259 -8260 0
-8253 -8260 8261 0
8253 -8261 0
8260 -8261 0
8261 8262 0
-8261 -8262 0
-8047 -8210 8263 0
8047 -8263 0
8210 -8263 0
8263 8264 0
-8263 -8264 0
-7868 -8144 8265 0
7868 -8265 0
8144 -8265 0
8265 8266 0
-8265 -8266 0
-7885 -7921 8267 0
7885 -8267 0
7921 -8267 0
8267 8268 0
-8267 -8268 0
-8266 -8268 8269 0
8266 -8269 0
8268 -8269 0
-7899 -8191 8270 0
7899 -8270 0
8191 -8270 0
8270 8271 0
-8270 -8271 0
-8189 -8271 8272 0
8189 -8272 0
8271 -8272 0
-8269 -8272 8273 0
8269 -8273 0
8272 -8273 0
8273 8274 0
-8273 -8274 0
-7884 -7921 8275 0
7884 -8275 0
7921 -8275 0
8275 8276 0
-8275 -8276 0
-7901 -7942 8277 0
7901 -8277 0
7942 -8277 0
8277 8278 0
-8277 -8278 0
-7967 -8278 8279 0
7967 -8279 0
8278 -8279 0
-8276 -8279 8280 0
8276 -8280 0
8279 -8280 0
8280 8281 0
-8280 -8281 0
-7883 -7931 8282 0
7883 -8282 0
7931 -8282 0
8282 8283 0
-8282 -8283 0
-8077 -8283 8284 0
8077 -8284 0
8283 -8284 0
-7870 -7986 8285 0
7870 -8285 0
7986 -8285 0
8285 8286 0
-8285 -8286 0
-7872 -7988 8287 0
7872 -8287 0
7988 -8287 0
8287 8288 0
-8287 -8288 0
-8286 -8288 8289 0
8286 -8289 0
8288 -8289 0
8289 8290 0
-8289 -8290 0
-8231 -8290 8291 0
8231 -8291 0
8290 -8291 0
-8058 -8291 8292 0
8058 -8292 0
8291 -8292 0
8292 8293 0
-8292 -8293 0
-8161 -8235 8294 0
8161 -8294 0
8235 -8294 0
-8293 -8294 8295 0
8293 -8295 0
8294 -8295 0
-8284 -8295 8296 0
8284 -8296 0
8295 -8296 0
8296 8297 0
-8296 -8297 0
-7865 -7940 8298 0
7865 -8298 0
7940 -8298 0
8298 8299 0
-8298 -8299 0
-8183 -8299 8300 0
8183 -8300 0
8299 -8300 0
8300 8301 0
-8300 -8301 0
-8184 -8301 8302 0
8184 -8302 0
8301 -8302 0
8302 8303 0
-8302 -8303 0
-8054 -8303 8304 0
8054 -8304 0
8303 -8304 0
-7904 -8045 8305 0
7904 -8305 0
8045 -8305 0
8305 8306 0
-8305 -8306 0
-7922 -8306 8307 0
7922 -8307 0
8306 -8307 0
-8047 -8307 8308 0
8047 -8308 0
8307 -8308 0
-8304 -8308 8309 0
8304 -8309 0
8308 -8309 0
8309 8310 0
-8309 -8310 0
-7922 -8201 8311 0
7922 -8311 0
8201 -8311 0
8311 8312 0
-8311 -8312 0
-7883 -8074 8313 0
7883 -8313 0
8074 -8313 0
-7905 -8313 8314 0
7905 -8314 0
8313 -8314 0
8314 8315 0
-8314 -8315 0
-7951 -8226 8316 0
7951 -8316 0
8226 -8316 0
8316 8317 0
-8316 -8317 0
-7945 -8317 8318 0
7945 -8318 0
8317 -8318 0
8318 8319 0
-8318 -8319 0
-7889 -8319 8320 0
7889 -8320 0
8319 -8320 0
8320 8321 0
-8320 -8321 0
-8315 -8321 8322 0
8315 -8322 0
8321 -8322 0
-7971 -8226 8323 0
7971 -8323 0
8226 -8323 0
8323 8324 0
-8323 -8324 0
-8092 -8324 8325 0
8092 -8325 0
8324 -8325 0
8325 8326 0
-8325 -8326 0
-7887 -8326 8327 0
7887 -8327 0
8326 -8327 0
8327 8328 0
-8327 -8328 0
-7936 -7927 8329 0
7936 -8329 0
7927 -8329 0
8329 8330 0
-8329 -8330 0
-8328 -8330 8331 0
8328 -8331 0
8330 -8331 0
-8047 -8331 8332 0
8047 -8332 0
8331 -8332 0
-8322 -8332 8333 0
8322 -8333 0
8332 -8333 0
8333 8334 0
-8333 -8334 0
-7899 -8132 8335 0
7899 -8335 0
8132 -8335 0
-7873 -7895 8336 0
7873 -8336 0
7895 -8336 0
-8335 -8336 8337 0
8335 -8337 0
8336 -8337 0
8337 8338 0
-8337 -8338 0
-7863 -7915 8339 0
7863 -8339 0
7915 -8339 0
8339 8340 0
-8339 -8340 0
-8338 -8340 8341 0
8338 -8341 0
8340 -8341 0
-7871 -7885 8342 0
7871 -8342 0
7885 -8342 0
8342 8343 0
-8342 -8343 0
-7888 -7899 8344 0
7888 -8344 0
7899 -8344 0
8344 8345 0
-8344 -8345 0
-8343 -8345 8346 0
8343 -8346 0
8345 -8346 0
8346 8347 0
-8346 -8347 0
-8133 -8347 8348 0
8133 -8348 0
8347 -8348 0
8348 8349 0
-8348 -8349 0
-8330 -8349 8350 0
8330 -8350 0
8349 -8350 0
-7971 -8230 8351 0
7971 -8351 0
8230 -8351 0
-7897 -8351 8352 0
7897 -8352 0
8351 -8352 0
8352 8353 0
-8352 -8353 0
-8047 -8353 8354 0
8047 -8354 0
8353 -8354 0
-8350 -8354 8355 0
8350 -8355 0
8354 -8355 0
-8341 -8355 8356 0
8341 -8356 0
8355 -8356 0
8356 8357 0
-8356 -8357 0
-7865 -7936 8358 0
7865 -8358 0
7936 -8358 0
8358 8359 0
-8358 -8359 0
-7903 -7938 8360 0
7903 -8360 0
7938 -8360 0
-7876 -8360 8361 0
7876 -8361 0
8360 -8361 0
8361 8362 0
-8361 -8362 0
-8359 -8362 8363 0
8359 -8363 0
8362 -8363 0
8363 8364 0
-8363 -8364 0
-8042 -8364 8365 0
8042 -8365 0
8364 -8365 0
8365 8366 0
-8365 -8366 0
-8102 -8216 8367 0
8102 -8367 0
8216 -8367 0
8367 8368 0
-8367 -8368 0
-7892 -8368 8369 0
7892 -8369 0
8368 -8369 0
8369 8370 0
-8369 -8370 0
-8256 -8370 8371 0
8256 -8371 0
8370 -8371 0
-7885 -8162 8372 0
7885 -8372 0
8162 -8372 0
-8223 -8372 8373 0
8223 -8373 0
8372 -8373 0
8373 8374 0
-8373 -8374 0
-7950 -8153 8375 0
7950 -8375 0
8153 -8375 0
-8244 -8375 8376 0
8244 -8376 0
8375 -8376 0
-7895 -8376 8377 0
7895 -8377 0
8376 -8377 0
8377 8378 0
-8377 -8378 0
-8374 -8378 8379 0
8374 -8379 0
8378 -8379 0
-8235 -8293 8380 0
8235 -8380 0
8293 -8380 0
-8379 -8380 8381 0
8379 -8381 0
8380 -8381 0
-8371 -8381 8382 0
8371 -8382 0
8381 -8382 0
-8366 -8382 8383 0
8366 -8383 0
8382 -8383 0
8383 8384 0
-8383 -8384 0
-7897 -7885 8385 0
7897 -8385 0
7885 -8385 0
-7886 -7881 8386 0
7886 -8386 0
7881 -8386 0
-8385 -8386 8387 0
8385 -8387 0
8386 -8387 0
8387 8388 0
-8387 -8388 0
-7892 -7899 8389 0
7892 -8389 0
7899 -8389 0
-8058 -8389 8390 0
8058 -8390 0
8389 -8390 0
-7879 -8390 8391 0
7879 -8391 0
8390 -8391 0
8391 8392 0
-8391 -8392 0
-8388 -8392 8393 0
8388 -8393 0
8392 -8393 0
8393 8394 0
-8393 -8394 0
-7871 -8394 8395 0
7871 -8395 0
8394 -8395 0
-8231 -8395 8396 0
8231 -8396 0
8395 -8396 0
-7936 -8396 8397 0
7936 -8397 0
8396 -8397 0
8397 8398 0
-8397 -8398 0
-8023 -8103 8399 0
8023 -8399 0
8103 -8399 0
8399 8400 0
-8399 -8400 0
-8398 -8400 8401 0
8398 -8401 0
8400 -8401 0
-7899 -8375 8402 0
7899 -8402 0
8375 -8402 0
8402 8403 0
-8402 -8403 0
-8129 -8403 8404 0
8129 -8404 0
8403 -8404 0
8404 8405 0
-8404 -8405 0
-8135 -8405 8406 0
8135 -8406 0
8405 -8406 0
8406 8407 0
-8406 -8407 0
-8401 -8407 8408 0
8401 -8408 0
8407 -8408 0
8408 8409 0
-8408 -8409 0
-7894 -7909 8410 0
7894 -8410 0
7909 -8410 0
-7895 -8247 8411 0
7895 -8411 0
8247 -8411 0
8411 8412 0
-8411 -8412 0
-8166 -8372 8413 0
8166 -8413 0
8372 -8413 0
8413 8414 0
-8413 -8414 0
-8235 -8414 8415 0
8235 -8415 0
8414 -8415 0
-7877 -7921 8416 0
7877 -8416 0
7921 -8416 0
8416 8417 0
-8416 -8417 0
-8303 -8417 8418 0
8303 -8418 0
8417 -8418 0
8418 8419 0
-8418 -8419 0
-7874 -8419 8420 0
7874 -8420 0
8419 -8420 0
8420 8421 0
-8420 -8421 0
-8366 -8421 8422 0
8366 -8422 0
8421 -8422 0
-8415 -8422 8423 0
8415 -8423 0
8422 -8423 0
-8412 -8423 8424 0
8412 -8424 0
8423 -8424 0
8424 8425 0
-8424 -8425 0
-7874 -8200 8426 0
7874 -8426 0
8200 -8426 0
8426 8427 0
-8426 -8427 0
-8398 -8427 8428 0
8398 -8428 0
8427 -8428 0
-7896 -8247 8429 0
7896 -8429 0
8247 -8429 0
-7881 -8429 8430 0
7881 -8430 0
8429 -8430 0
8430 8431 0
-8430 -8431 0
-8400 -8431 8432 0
8400 -8432 0
8431 -8432 0
-8428 -8432 8433 0
8428 -8433 0
8432 -8433 0
8433 8434 0
-8433 -8434 0
-7894 -7882 8435 0
7894 -8435 0
7882 -8435 0
-7894 -7896 8436 0
7894 -8436 0
7896 -8436 0
-7866 -7903 8437 0
7866 -8437 0
7903 -8437 0
-8329 -8437 8438 0
8329 -8438 0
8437 -8438 0
-8156 -8389 8439 0
8156 -8439 0
8389 -8439 0
8439 8440 0
-8439 -8440 0
-8400 -8440 8441 0
8400 -8441 0
8440 -8441 0
8441 8442 0
-8441 -8442 0
-8443 8442 0
8443 -8442 0
-8444 8438 0
8444 -8438 0
-8445 8436 0
8445 -8436 0
-8446 8435 0
8446 -8435 0
-8447 8434 0
8447 -8434 0
-8448 8425 0
8448 -8425 0
-8449 8410 0
8449 -8410 0
-8450 8409 0
8450 -8409 0
-8451 8384 0
8451 -8384 0
-8452 8357 0
8452 -8357 0
-8453 8334 0
8453 -8334 0
-8454 8312 0
8454 -8312 0
-8455 8310 0
8455 -8310 0
-8456 8297 0
8456 -8297 0
-8457 7921 0
8457 -7921 0
-8458 8281 0
8458 -8281 0
-8459 8274 0
8459 -8274 0
-8460 7931 0
8460 -7931 0
-8461 8264 0
8461 -8264 0
-8462 8262 0
8462 -8262 0
-8463 8242 0
8463 -8242 0
-8464 8214 0
8464 -8214 0
-8465 8196 0
8465 -8196 0
-8466 8178 0
8466 -8178 0
-8467 8151 0
8467 -8151 0
-8468 8089 0
8468 -8089 0
-8469 8057 0
8469 -8057 0
-8470 8032 0
8470 -8032 0
-8471 7985 0
8471 -7985 0
8473 8489 0
-8473 -8489 0
8474 8490 0
-8474 -8490 0
8475 8491 0
-8475 -8491 0
8476 8492 0
-8476 -8492 0
8477 8493 0
-8477 -8493 0
8479 8494 0
-8479 -8494 0
8481 8495 0
-8481 -8495 0
8482 8496 0
-8482 -8496 0
8483 8497 0
-8483 -8497 0
8484 8498 0
-8484 -8498 0
8485 8499 0
-8485 -8499 0
8486 8500 0
-8486 -8500 0
8487 8501 0
-8487 -8501 0
8488 8502 0
-8488 -8502 0
8471 8503 0
-8471 -8503 0
8470 8504 0
-8470 -8504 0
8469 8505 0
-8469 -8505 0
8468 8506 0
-8468 -8506 0
8467 8507 0
-8467 -8507 0
8466 8508 0
-8466 -8508 0
-8471 -8505 8509 0
8471 -8509 0
8505 -8509 0
-8506 -8509 8510 0
8506 -8510 0
8509 -8510 0
-8498 -8499 8511 0
8498 -8511 0
8499 -8511 0
8511 8512 0
-8511 -8512 0
-8504 -8512 8513 0
8504 -8513 0
8512 -8513 0
-8510 -8513 8514 0
8510 -8514 0
8513 -8514 0
-8466 -8514 8515 0
8466 -8515 0
8514 -8515 0
8515 8516 0
-8515 -8516 0
-8504 -8510 8517 0
8504 -8517 0
8510 -8517 0
-8491 -8517 8518 0
8491 -8518 0
8517 -8518 0
-8489 -8518 8519 0
8489 -8519 0
8518 -8519 0
8519 8520 0
-8519 -8520 0
-8516 -8520 8521 0
8516 -8521 0
8520 -8521 0
-8507 -8510 8522 0
8507 -8522 0
8510 -8522 0
-8470 -8508 8523 0
8470 -8523 0
8508 -8523 0
-8522 -8523 8524 0
8522 -8524 0
8523 -8524 0
8524 8525 0
-8524 -8525 0
-8500 -8501 8526 0
8500 -8526 0
8501 -8526 0
8526 8527 0
-8526 -8527 0
-8478 -8505 8528 0
8478 -8528 0
8505 -8528 0
8528 8529 0
-8528 -8529 0
-8503 -8504 8530 0
8503 -8530 0
8504 -8530 0
-8468 -8508 8531 0
8468 -8531 0
8508 -8531 0
-8530 -8531 8532 0
8530 -8532 0
8531 -8532 0
-8507 -8532 8533 0
8507 -8533 0
8532 -8533 0
-8528 -8533 8534 0
8528 -8534 0
8533 -8534 0
-8527 -8534 8535 0
8527 -8535 0
8534 -8535 0
8535 8536 0
-8535 -8536 0
-8525 -8536 8537 0
8525 -8537 0
8536 -8537 0
-8521 -8537 8538 0
8521 -8538 0
8537 -8538 0
-8507 -8508 8539 0
8507 -8539 0
8508 -8539 0
8539 8540 0
-8539 -8540 0
-8467 -8466 8541 0
8467 -8541 0
8466 -8541 0
8541 8542 0
-8541 -8542 0
-8540 -8542 8543 0
8540 -8543 0
8542 -8543 0
-8468 -8509 8544 0
8468 -8544 0
8509 -8544 0
-8543 -8544 8545 0
8543 -8545 0
8544 -8545 0
8545 8546 0
-8545 -8546 0
-8486 -8522 8547 0
8486 -8547 0
8522 -8547 0
8547 8548 0
-8547 -8548 0
-8508 -8547 8549 0
8508 -8549 0
8547 -8549 0
8549 8550 0
-8549 -8550 0
-8546 -8550 8551 0
8546 -8551 0
8550 -8551 0
-8475 -8476 8552 0
8475 -8552 0
8476 -8552 0
8552 8553 0
-8552 -8553 0
-8502 -8522 8554 0
8502 -8554 0
8522 -8554 0
8554 8555 0
-8554 -8555 0
-8507 -8466 8556 0
8507 -8556 0
8466 -8556 0
-8509 -8556 8557 0
8509 -8557 0
8556 -8557 0
8557 8558 0
-8557 -8558 0
-8555 -8558 8559 0
8555 -8559 0
8558 -8559 0
8559 8560 0
-8559 -8560 0
-8553 -8560 8561 0
8553 -8561 0
8560 -8561 0
8561 8562 0
-8561 -8562 0
-8486 -8514 8563 0
8486 -8563 0
8514 -8563 0
8563 8564 0
-8563 -8564 0
-8562 -8564 8565 0
8562 -8565 0
8564 -8565 0
-8500 -8504 8566 0
8500 -8566 0
8504 -8566 0
8566 8567 0
-8566 -8567 0
-8543 -8566 8568 0
8543 -8568 0
8566 -8568 0
-8509 -8568 8569 0
8509 -8569 0
8568 -8569 0
8569 8570 0
-8569 -8570 0
-8473 -8474 8571 0
8473 -8571 0
8474 -8571 0
8571 8572 0
-8571 -8572 0
-8508 -8510 8573 0
8508 -8573 0
8510 -8573 0
-8488 -8573 8574 0
8488 -8574 0
8573 -8574 0
8574 8575 0
-8574 -8575 0
-8467 -8508 8576 0
8467 -8576 0
8508 -8576 0
-8505 -8576 8577 0
8505 -8577 0
8576 -8577 0
-8471 -8577 8578 0
8471 -8578 0
8577 -8578 0
8578 8579 0
-8578 -8579 0
-8575 -8579 8580 0
8575 -8580 0
8579 -8580 0
8580 8581 0
-8580 -8581 0
-8572 -8581 8582 0
8572 -8582 0
8581 -8582 0
8582 8583 0
-8582 -8583 0
-8570 -8583 8584 0
8570 -8584 0
8583 -8584 0
-8565 -8584 8585 0
8565 -8585 0
8584 -8585 0
-8551 -8585 8586 0
8551 -8586 0
8585 -8586 0
-8538 -8586 8587 0
8538 -8587 0
8586 -8587 0
8587 8588 0
-8587 -8588 0
-8490 -8576 8589 0
8490 -8589 0
8576 -8589 0
8589 8590 0
-8589 -8590 0
-8492 -8556 8591 0
8492 -8591 0
8556 -8591 0
8591 8592 0
-8591 -8592 0
-8590 -8592 8593 0
8590 -8593 0
8592 -8593 0
8593 8594 0
-8593 -8594 0
-8509 -8594 8595 0
8509 -8595 0
8594 -8595 0
8595 8596 0
-8595 -8596 0
-8546 -8596 8597 0
8546 -8597 0
8596 -8597 0
8597 8598 0
-8597 -8598 0
-8470 -8598 8599 0
8470 -8599 0
8598 -8599 0
8599 8600 0
-8599 -8600 0
-8475 -8492 8601 0
8475 -8601 0
8492 -8601 0
8601 8602 0
-8601 -8602 0
-8481 -8602 8603 0
8481 -8603 0
8602 -8603 0
8603 8604 0
-8603 -8604 0
-8504 -8511 8605 0
8504 -8605 0
8511 -8605 0
-8547 -8605 8606 0
8547 -8606 0
8605 -8606 0
-8508 -8606 8607 0
8508 -8607 0
8606 -8607 0
-8474 -8607 8608 0
8474 -8608 0
8607 -8608 0
8608 8609 0
-8608 -8609 0
-8604 -8608 8610 0
8604 -8610 0
8608 -8610 0
-8488 -8610 8611 0
8488 -8611 0
8610 -8611 0
8611 8612 0
-8611 -8612 0
-8600 -8612 8613 0
8600 -8613 0
8612 -8613 0
-8493 -8524 8614 0
8493 -8614 0
8524 -8614 0
8614 8615 0
-8614 -8615 0
-8473 -8490 8616 0
8473 -8616 0
8490 -8616 0
8616 8617 0
-8616 -8617 0
-8482 -8617 8618 0
8482 -8618 0
8617 -8618 0
8618 8619 0
-8618 -8619 0
-8607 -8619 8620 0
8607 -8620 0
8619 -8620 0
-8501 -8502 8621 0
8501 -8621 0
8502 -8621 0
8621 8622 0
-8621 -8622 0
-8487 -8488 8623 0
8487 -8623 0
8488 -8623 0
8623 8624 0
-8623 -8624 0
-8622 -8624 8625 0
8622 -8625 0
8624 -8625 0
8625 8626 0
-8625 -8626 0
-8476 -8625 8627 0
8476 -8627 0
8625 -8627 0
8627 8628 0
-8627 -8628 0
-8603 -8628 8629 0
8603 -8629 0
8628 -8629 0
8629 8630 0
-8629 -8630 0
-8620 -8630 8631 0
8620 -8631 0
8630 -8631 0
8631 8632 0
-8631 -8632 0
-8615 -8632 8633 0
8615 -8633 0
8632 -8633 0
-8613 -8633 8634 0
8613 -8634 0
8633 -8634 0
8634 8635 0
-8634 -8635 0
-8508 -8511 8636 0
8508 -8636 0
8511 -8636 0
-8552 -8636 8637 0
8552 -8637 0
8636 -8637 0
8637 8638 0
-8637 -8638 0
-8505 -8638 8639 0
8505 -8639 0
8638 -8639 0
8639 8640 0
-8639 -8640 0
-8507 -8640 8641 0
8507 -8641 0
8640 -8641 0
-8530 -8641 8642 0
8530 -8642 0
8641 -8642 0
-8506 -8642 8643 0
8506 -8643 0
8642 -8643 0
8643 8644 0
-8643 -8644 0
-8469 -8530 8645 0
8469 -8645 0
8530 -8645 0
-8556 -8645 8646 0
8556 -8646 0
8645 -8646 0
8646 8647 0
-8646 -8647 0
-8506 -8645 8648 0
8506 -8648 0
8645 -8648 0
-8466 -8648 8649 0
8466 -8649 0
8648 -8649 0
8649 8650 0
-8649 -8650 0
-8494 -8649 8651 0
8494 -8651 0
8649 -8651 0
8651 8652 0
-8651 -8652 0
-8647 -8652 8653 0
8647 -8653 0
8652 -8653 0
-8467 -8532 8654 0
8467 -8654 0
8532 -8654 0
8654 8655 0
-8654 -8655 0
-8469 -8654 8656 0
8469 -8656 0
8654 -8656 0
8656 8657 0
-8656 -8657 0
-8653 -8657 8658 0
8653 -8658 0
8657 -8658 0
-8644 -8658 8659 0
8644 -8659 0
8658 -8659 0
8659 8660 0
-8659 -8660 0
-8498 -8486 8661 0
8498 -8661 0
8486 -8661 0
-8499 -8661 8662 0
8499 -8662 0
8661 -8662 0
8662 8663 0
-8662 -8663 0
-8504 -8663 8664 0
8504 -8664 0
8663 -8664 0
8664 8665 0
-8664 -8665 0
-8467 -8665 8666 0
8467 -8666 0
8665 -8666 0
-8573 -8666 8667 0
8573 -8667 0
8666 -8667 0
-8616 -8667 8668 0
8616 -8668 0
8667 -8668 0
8668 8669 0
-8668 -8669 0
-8466 -8665 8670 0
8466 -8670 0
8665 -8670 0
-8522 -8670 8671 0
8522 -8671 0
8670 -8671 0
-8601 -8671 8672 0
8601 -8672 0
8671 -8672 0
8672 8673 0
-8672 -8673 0
-8669 -8673 8674 0
8669 -8674 0
8673 -8674 0
-8504 -8507 8675 0
8504 -8675 0
8507 -8675 0
-8505 -8506 8676 0
8505 -8676 0
8506 -8676 0
-8675 -8676 8677 0
8675 -8677 0
8676 -8677 0
-8503 -8637 8678 0
8503 -8678 0
8637 -8678 0
-8677 -8678 8679 0
8677 -8679 0
8678 -8679 0
8679 8680 0
-8679 -8680 0
-8532 -8529 8681 0
8532 -8681 0
8529 -8681 0
8681 8682 0
-8681 -8682 0
-8680 -8682 8683 0
8680 -8683 0
8682 -8683 0
-8467 -8649 8684 0
8467 -8684 0
8649 -8684 0
8684 8685 0
-8684 -8685 0
-8493 -8545 8686 0
8493 -8686 0
8545 -8686 0
8686 8687 0
-8686 -8687 0
-8685 -8687 8688 0
8685 -8688 0
8687 -8688 0
-8683 -8688 8689 0
8683 -8689 0
8688 -8689 0
-8674 -8689 8690 0
8674 -8690 0
8689 -8690 0
-8655 -8690 8691 0
8655 -8691 0
8690 -8691 0
8691 8692 0
-8691 -8692 0
-8476 -8481 8693 0
8476 -8693 0
8481 -8693 0
-8486 -8573 8694 0
8486 -8694 0
8573 -8694 0
8694 8695 0
-8694 -8695 0
-8473 -8694 8696 0
8473 -8696 0
8694 -8696 0
-8605 -8696 8697 0
8605 -8697 0
8696 -8697 0
-8507 -8697 8698 0
8507 -8698 0
8697 -8698 0
8698 8699 0
-8698 -8699 0
-8609 -8699 8700 0
8609 -8700 0
8699 -8700 0
8700 8701 0
-8700 -8701 0
-8693 -8701 8702 0
8693 -8702 0
8701 -8702 0
8702 8703 0
-8702 -8703 0
-8496 -8607 8704 0
8496 -8704 0
8607 -8704 0
8704 8705 0
-8704 -8705 0
-8693 -8704 8706 0
8693 -8706 0
8704 -8706 0
8706 8707 0
-8706 -8707 0
-8703 -8707 8708 0
8703 -8708 0
8707 -8708 0
-8493 -8500 8709 0
8493 -8709 0
8500 -8709 0
8709 8710 0
-8709 -8710 0
-8486 -8512 8711 0
8486 -8711 0
8512 -8711 0
8711 8712 0
-8711 -8712 0
-8710 -8712 8713 0
8710 -8713 0
8712 -8713 0
8713 8714 0
-8713 -8714 0
-8504 -8714 8715 0
8504 -8715 0
8714 -8715 0
8715 8716 0
-8715 -8716 0
-8506 -8716 8717 0
8506 -8717 0
8716 -8717 0
-8567 -8572 8718 0
8567 -8718 0
8572 -8718 0
8718 8719 0
-8718 -8719 0
-8717 -8719 8720 0
8717 -8720 0
8719 -8720 0
8720 8721 0
-8720 -8721 0
-8578 -8721 8722 0
8578 -8722 0
8721 -8722 0
8722 8723 0
-8722 -8723 0
-8491 -8476 8724 0
8491 -8724 0
8476 -8724 0
-8671 -8724 8725 0
8671 -8725 0
8724 -8725 0
8725 8726 0
-8725 -8726 0
-8723 -8726 8727 0
8723 -8727 0
8726 -8727 0
-8708 -8727 8728 0
8708 -8728 0
8727 -8728 0
-8502 -8601 8729 0
8502 -8729 0
8601 -8729 0
8729 8730 0
-8729 -8730 0
-8488 -8616 8731 0
8488 -8731 0
8616 -8731 0
8731 8732 0
-8731 -8732 0
-8730 -8732 8733 0
8730 -8733 0
8732 -8733 0
8733 8734 0
-8733 -8734 0
-8500 -8573 8735 0
8500 -8735 0
8573 -8735 0
-8499 -8735 8736 0
8499 -8736 0
8735 -8736 0
-8484 -8736 8737 0
8484 -8737 0
8736 -8737 0
-8675 -8737 8738 0
8675 -8738 0
8737 -8738 0
-8734 -8738 8739 0
8734 -8739 0
8738 -8739 0
8739 8740 0
-8739 -8740 0
-8493 -8656 8741 0
8493 -8741 0
8656 -8741 0
8741 8742 0
-8741 -8742 0
-8740 -8742 8743 0
8740 -8743 0
8742 -8743 0
-8467 -8515 8744 0
8467 -8744 0
8515 -8744 0
8744 8745 0
-8744 -8745 0
-8504 -8577 8746 0
8504 -8746 0
8577 -8746 0
-8468 -8746 8747 0
8468 -8747 0
8746 -8747 0
-8572 -8747 8748 0
8572 -8748 0
8747 -8748 0
8748 8749 0
-8748 -8749 0
-8745 -8749 8750 0
8745 -8750 0
8749 -8750 0
-8743 -8750 8751 0
8743 -8751 0
8750 -8751 0
-8650 -8751 8752 0
8650 -8752 0
8751 -8752 0
-8728 -8752 8753 0
8728 -8753 0
8752 -8753 0
8753 8754 0
-8753 -8754 0
-8491 -8492 8755 0
8491 -8755 0
8492 -8755 0
8755 8756 0
-8755 -8756 0
-8481 -8755 8757 0
8481 -8757 0
8755 -8757 0
8757 8758 0
-8757 -8758 0
-8482 -8608 8759 0
8482 -8759 0
8608 -8759 0
-8758 -8759 8760 0
8758 -8760 0
8759 -8760 0
8760 8761 0
-8760 -8761 0
-8745 -8761 8762 0
8745 -8762 0
8761 -8762 0
-8675 -8735 8763 0
8675 -8763 0
8735 -8763 0
8763 8764 0
-8763 -8764 0
-8498 -8763 8765 0
8498 -8765 0
8763 -8765 0
-8734 -8765 8766 0
8734 -8766 0
8765 -8766 0
8766 8767 0
-8766 -8767 0
-8644 -8767 8768 0
8644 -8768 0
8767 -8768 0
-8489 -8474 8769 0
8489 -8769 0
8474 -8769 0
-8667 -8769 8770 0
8667 -8770 0
8769 -8770 0
8770 8771 0
-8770 -8771 0
-8553 -8567 8772 0
8553 -8772 0
8567 -8772 0
8772 8773 0
-8772 -8773 0
-8717 -8773 8774 0
8717 -8774 0
8773 -8774 0
8774 8775 0
-8774 -8775 0
-8557 -8775 8776 0
8557 -8776 0
8775 -8776 0
8776 8777 0
-8776 -8777 0
-8771 -8777 8778 0
8771 -8778 0
8777 -8778 0
-8768 -8778 8779 0
8768 -8779 0
8778 -8779 0
-8762 -8779 8780 0
8762 -8780 0
8779 -8780 0
8780 8781 0
-8780 -8781 0
-8544 -8576 8782 0
8544 -8782 0
8576 -8782 0
8782 8783 0
-8782 -8783 0
-8525 -8783 8784 0
8525 -8784 0
8783 -8784 0
-8500 -8556 8785 0
8500 -8785 0
8556 -8785 0
8785 8786 0
-8785 -8786 0
-8504 -8509 8787 0
8504 -8787 0
8509 -8787 0
-8785 -8787 8788 0
8785 -8788 0
8787 -8788 0
8788 8789 0
-8788 -8789 0
-8488 -8506 8790 0
8488 -8790 0
8506 -8790 0
-8788 -8790 8791 0
8788 -8791 0
8790 -8791 0
8791 8792 0
-8791 -8792 0
-8500 -8471 8793 0
8500 -8793 0
8471 -8793 0
-8746 -8793 8794 0
8746 -8794 0
8793 -8794 0
-8488 -8794 8795 0
8488 -8795 0
8794 -8795 0
8795 8796 0
-8795 -8796 0
-8792 -8796 8797 0
8792 -8797 0
8796 -8797 0
-8784 -8797 8798 0
8784 -8798 0
8797 -8798 0
8798 8799 0
-8798 -8799 0
-8544 -8556 8800 0
8544 -8800 0
8556 -8800 0
8800 8801 0
-8800 -8801 0
-8525 -8801 8802 0
8525 -8802 0
8801 -8802 0
-8506 -8794 8803 0
8506 -8803 0
8794 -8803 0
8803 8804 0
-8803 -8804 0
-8789 -8804 8805 0
8789 -8805 0
8804 -8805 0
8805 8806 0
-8805 -8806 0
-8502 -8806 8807 0
8502 -8807 0
8806 -8807 0
8807 8808 0
-8807 -8808 0
-8506 -8467 8809 0
8506 -8809 0
8467 -8809 0
8809 8810 0
-8809 -8810 0
-8508 -8810 8811 0
8508 -8811 0
8810 -8811 0
-8645 -8811 8812 0
8645 -8812 0
8811 -8812 0
8812 8813 0
-8812 -8813 0
-8808 -8813 8814 0
8808 -8814 0
8813 -8814 0
-8650 -8814 8815 0
8650 -8815 0
8814 -8815 0
-8802 -8815 8816 0
8802 -8816 0
8815 -8816 0
8816 8817 0
-8816 -8817 0
-8490 -8697 8818 0
8490 -8818 0
8697 -8818 0
8818 8819 0
-8818 -8819 0
-8604 -8818 8820 0
8604 -8820 0
8818 -8820 0
-8482 -8820 8821 0
8482 -8821 0
8820 -8821 0
8821 8822 0
-8821 -8822 0
-8669 -8822 8823 0
8669 -8823 0
8822 -8823 0
-8489 -8490 8824 0
8489 -8824 0
8490 -8824 0
8824 8825 0
-8824 -8825 0
-8572 -8825 8826 0
8572 -8826 0
8825 -8826 0
-8763 -8826 8827 0
8763 -8827 0
8826 -8827 0
-8484 -8485 8828 0
8484 -8828 0
8485 -8828 0
8828 8829 0
-8828 -8829 0
-8488 -8829 8830 0
8488 -8830 0
8829 -8830 0
-8827 -8830 8831 0
8827 -8831 0
8830 -8831 0
8831 8832 0
-8831 -8832 0
-8489 -8498 8833 0
8489 -8833 0
8498 -8833 0
-8499 -8517 8834 0
8499 -8834 0
8517 -8834 0
-8491 -8834 8835 0
8491 -8835 0
8834 -8835 0
-8541 -8835 8836 0
8541 -8836 0
8835 -8836 0
-8833 -8836 8837 0
8833 -8837 0
8836 -8837 0
8837 8838 0
-8837 -8838 0
-8832 -8838 8839 0
8832 -8839 0
8838 -8839 0
-8823 -8839 8840 0
8823 -8840 0
8839 -8840 0
-8571 -8654 8841 0
8571 -8841 0
8654 -8841 0
-8505 -8841 8842 0
8505 -8842 0
8841 -8842 0
8842 8843 0
-8842 -8843 0
-8840 -8843 8844 0
8840 -8844 0
8843 -8844 0
8844 8845 0
-8844 -8845 0
-8508 -8566 8846 0
8508 -8846 0
8566 -8846 0
-8554 -8846 8847 0
8554 -8847 0
8846 -8847 0
-8601 -8847 8848 0
8601 -8848 0
8847 -8848 0
8848 8849 0
-8848 -8849 0
-8724 -8847 8850 0
8724 -8850 0
8847 -8850 0
8850 8851 0
-8850 -8851 0
-8849 -8851 8852 0
8849 -8852 0
8851 -8852 0
8852 8853 0
-8852 -8853 0
-8829 -8853 8854 0
8829 -8854 0
8853 -8854 0
8854 8855 0
-8854 -8855 0
-8838 -8855 8856 0
8838 -8856 0
8855 -8856 0
-8606 -8619 8857 0
8606 -8857 0
8619 -8857 0
-8601 -8857 8858 0
8601 -8858 0
8857 -8858 0
8858 8859 0
-8858 -8859 0
-8481 -8858 8860 0
8481 -8860 0
8858 -8860 0
8860 8861 0
-8860 -8861 0
-8680 -8861 8862 0
8680 -8862 0
8861 -8862 0
-8673 -8862 8863 0
8673 -8863 0
8862 -8863 0
-8856 -8863 8864 0
8856 -8864 0
8863 -8864 0
8864 8865 0
-8864 -8865 0
-8650 -8813 8866 0
8650 -8866 0
8813 -8866 0
8866 8867 0
-8866 -8867 0
-8471 -8747 8868 0
8471 -8868 0
8747 -8868 0
8868 8869 0
-8868 -8869 0
-8488 -8524 8870 0
8488 -8870 0
8524 -8870 0
8870 8871 0
-8870 -8871 0
-8869 -8871 8872 0
8869 -8872 0
8871 -8872 0
-8502 -8794 8873 0
8502 -8873 0
8794 -8873 0
8873 8874 0
-8873 -8874 0
-8792 -8874 8875 0
8792 -8875 0
8874 -8875 0
-8872 -8875 8876 0
8872 -8876 0
8875 -8876 0
8876 8877 0
-8876 -8877 0
-8487 -8524 8878 0
8487 -8878 0
8524 -8878 0
8878 8879 0
-8878 -8879 0
-8504 -8545 8880 0
8504 -8880 0
8545 -8880 0
8880 8881 0
-8880 -8881 0
-8570 -8881 8882 0
8570 -8882 0
8881 -8882 0
-8879 -8882 8883 0
8879 -8883 0
8882 -8883 0
8883 8884 0
-8883 -8884 0
-8486 -8534 8885 0
8486 -8885 0
8534 -8885 0
8885 8886 0
-8885 -8886 0
-8680 -8886 8887 0
8680 -8887 0
8886 -8887 0
-8473 -8589 8888 0
8473 -8888 0
8589 -8888 0
8888 8889 0
-8888 -8889 0
-8475 -8591 8890 0
8475 -8890 0
8591 -8890 0
8890 8891 0
-8890 -8891 0
-8889 -8891 8892 0
8889 -8892 0
8891 -8892 0
8892 8893 0
-8892 -8893 0
-8834 -8893 8894 0
8834 -8894 0
8893 -8894 0
-8661 -8894 8895 0
8661 -8895 0
8894 -8895 0
8895 8896 0
-8895 -8896 0
-8764 -8838 8897 0
8764 -8897 0
8838 -8897 0
-8896 -8897 8898 0
8896 -8898 0
8897 -8898 0
-8887 -8898 8899 0
8887 -8899 0
8898 -8899 0
8899 8900 0
-8899 -8900 0
-8468 -8543 8901 0
8468 -8901 0
8543 -8901 0
8901 8902 0
-8901 -8902 0
-8786 -8902 8903 0
8786 -8903 0
8902 -8903 0
8903 8904 0
-8903 -8904 0
-8787 -8904 8905 0
8787 -8905 0
8904 -8905 0
8905 8906 0
-8905 -8906 0
-8657 -8906 8907 0
8657 -8907 0
8906 -8907 0
-8507 -8648 8908 0
8507 -8908 0
8648 -8908 0
8908 8909 0
-8908 -8909 0
-8525 -8909 8910 0
8525 -8910 0
8909 -8910 0
-8650 -8910 8911 0
8650 -8911 0
8910 -8911 0
-8907 -8911 8912 0
8907 -8912 0
8911 -8912 0
8912 8913 0
-8912 -8913 0
-8525 -8804 8914 0
8525 -8914 0
8804 -8914 0
8914 8915 0
-8914 -8915 0
-8486 -8677 8916 0
8486 -8916 0
8677 -8916 0
-8508 -8916 8917 0
8508 -8917 0
8916 -8917 0
8917 8918 0
-8917 -8918 0
-8554 -8829 8919 0
8554 -8919 0
8829 -8919 0
8919 8920 0
-8919 -8920 0
-8548 -8920 8921 0
8548 -8921 0
8920 -8921 0
8921 8922 0
-8921 -8922 0
-8492 -8922 8923 0
8492 -8923 0
8922 -8923 0
8923 8924 0
-8923 -8924 0
-8918 -8924 8925 0
8918 -8925 0
8924 -8925 0
-8574 -8829 8926 0
8574 -8926 0
8829 -8926 0
8926 8927 0
-8926 -8927 0
-8695 -8927 8928 0
8695 -8928 0
8927 -8928 0
8928 8929 0
-8928 -8929 0
-8490 -8929 8930 0
8490 -8930 0
8929 -8930 0
8930 8931 0
-8930 -8931 0
-8539 -8530 8932 0
8539 -8932 0
8530 -8932 0
8932 8933 0
-8932 -8933 0
-8931 -8933 8934 0
8931 -8934 0
8933 -8934 0
-8650 -8934 8935 0
8650 -8935 0
8934 -8935 0
-8925 -8935 8936 0
8925 -8936 0
8935 -8936 0
8936 8937 0
-8936 -8937 0
-8502 -8735 8938 0
8502 -8938 0
8735 -8938 0
-8476 -8498 8939 0
8476 -8939 0
8498 -8939 0
-8938 -8939 8940 0
8938 -8940 0
8939 -8940 0
8940 8941 0
-8940 -8941 0
-8466 -8518 8942 0
8466 -8942 0
8518 -8942 0
8942 8943 0
-8942 -8943 0
-8941 -8943 8944 0
8941 -8944 0
8943 -8944 0
-8474 -8488 8945 0
8474 -8945 0
8488 -8945 0
8945 8946 0
-8945 -8946 0
-8491 -8502 8947 0
8491 -8947 0
8502 -8947 0
8947 8948 0
-8947 -8948 0
-8946 -8948 8949 0
8946 -8949 0
8948 -8949 0
8949 8950 0
-8949 -8950 0
-8736 -8950 8951 0
8736 -8951 0
8950 -8951 0
8951 8952 0
-8951 -8952 0
-8933 -8952 8953 0
8933 -8953 0
8952 -8953 0
-8574 -8833 8954 0
8574 -8954 0
8833 -8954 0
-8500 -8954 8955 0
8500 -8955 0
8954 -8955 0
8955 8956 0
-8955 -8956 0
-8650 -8956 8957 0
8650 -8957 0
8956 -8957 0
-8953 -8957 8958 0
8953 -8958 0
8957 -8958 0
-8944 -8958 8959 0
8944 -8959 0
8958 -8959 0
8959 8960 0
-8959 -8960 0
-8468 -8539 8961 0
8468 -8961 0
8539 -8961 0
8961 8962 0
-8961 -8962 0
-8506 -8541 8963 0
8506 -8963 0
8541 -8963 0
-8479 -8963 8964 0
8479 -8964 0
8963 -8964 0
8964 8965 0
-8964 -8965 0
-8962 -8965 8966 0
8962 -8966 0
8965 -8966 0
8966 8967 0
-8966 -8967 0
-8645 -8967 8968 0
8645 -8968 0
8967 -8968 0
8968 8969 0
-8968 -8969 0
-8705 -8819 8970 0
8705 -8970 0
8819 -8970 0
8970 8971 0
-8970 -8971 0
-8495 -8971 8972 0
8495 -8972 0
8971 -8972 0
8972 8973 0
-8972 -8973 0
-8859 -8973 8974 0
8859 -8974 0
8973 -8974 0
-8488 -8765 8975 0
8488 -8975 0
8765 -8975 0
-8826 -8975 8976 0
8826 -8976 0
8975 -8976 0
8976 8977 0
-8976 -8977 0
-8553 -8756 8978 0
8553 -8978 0
8756 -8978 0
-8847 -8978 8979 0
8847 -8979 0
8978 -8979 0
-8498 -8979 8980 0
8498 -8980 0
8979 -8980 0
8980 8981 0
-8980 -8981 0
-8977 -8981 8982 0
8977 -8982 0
8981 -8982 0
-8838 -8896 8983 0
8838 -8983 0
8896 -8983 0
-8982 -8983 8984 0
8982 -8984 0
8983 -8984 0
-8974 -8984 8985 0
8974 -8985 0
8984 -8985 0
-8969 -8985 8986 0
8969 -8986 0
8985 -8986 0
8986 8987 0
-8986 -8987 0
-8500 -8488 8988 0
8500 -8988 0
8488 -8988 0
-8489 -8484 8989 0
8489 -8989 0
8484 -8989 0
-8988 -8989 8990 0
8988 -8990 0
8989 -8990 0
8990 8991 0
-8990 -8991 0
-8495 -8502 8992 0
8495 -8992 0
8502 -8992 0
-8661 -8992 8993 0
8661 -8993 0
8992 -8993 0
-8482 -8993 8994 0
8482 -8994 0
8993 -8994 0
8994 8995 0
-8994 -8995 0
-8991 -8995 8996 0
8991 -8996 0
8995 -8996 0
8996 8997 0
-8996 -8997 0
-8474 -8997 8998 0
8474 -8998 0
8997 -8998 0
-8834 -8998 8999 0
8834 -8999 0
8998 -8999 0
-8539 -8999 9000 0
8539 -9000 0
8999 -9000 0
9000 9001 0
-9000 -9001 0
-8626 -8706 9002 0
8626 -9002 0
8706 -9002 0
9002 9003 0
-9002 -9003 0
-9001 -9003 9004 0
9001 -9004 0
9003 -9004 0
-8502 -8978 9005 0
8502 -9005 0
8978 -9005 0
9005 9006 0
-9005 -9006 0
-8732 -9006 9007 0
8732 -9007 0
9006 -9007 0
9007 9008 0
-9007 -9008 0
-8738 -9008 9009 0
8738 -9009 0
9008 -9009 0
9009 9010 0
-9009 -9010 0
-9004 -9010 9011 0
9004 -9011 0
9010 -9011 0
9011 9012 0
-9011 -9012 0
-8497 -8512 9013 0
8497 -9013 0
8512 -9013 0
-8498 -8850 9014 0
8498 -9014 0
8850 -9014 0
9014 9015 0
-9014 -9015 0
-8769 -8975 9016 0
8769 -9016 0
8975 -9016 0
9016 9017 0
-9016 -9017 0
-8838 -9017 9018 0
8838 -9018 0
9017 -9018 0
-8480 -8524 9019 0
8480 -9019 0
8524 -9019 0
9019 9020 0
-9019 -9020 0
-8906 -9020 9021 0
8906 -9021 0
9020 -9021 0
9021 9022 0
-9021 -9022 0
-8477 -9022 9023 0
8477 -9023 0
9022 -9023 0
9023 9024 0
-9023 -9024 0
-8969 -9024 9025 0
8969 -9025 0
9024 -9025 0
-9018 -9025 9026 0
9018 -9026 0
9025 -9026 0
-9015 -9026 9027 0
9015 -9027 0
9026 -9027 0
9027 9028 0
-9027 -9028 0
-8477 -8803 9029 0
8477 -9029 0
8803 -9029 0
9029 9030 0
-9029 -9030 0
-9001 -9030 9031 0
9001 -9031 0
9030 -9031 0
-8499 -8850 9032 0
8499 -9032 0
8850 -9032 0
-8484 -9032 9033 0
8484 -9033 0
9032 -9033 0
9033 9034 0
-9033 -9034 0
-9003 -9034 9035 0
9003 -9035 0
9034 -9035 0
-9031 -9035 9036 0
9031 -9036 0
9035 -9036 0
9036 9037 0
-9036 -9037 0
-8497 -8485 9038 0
8497 -9038 0
8485 -9038 0
-8497 -8499 9039 0
8497 -9039 0
8499 -9039 0
-8469 -8506 9040 0
8469 -9040 0
8506 -9040 0
-8932 -9040 9041 0
8932 -9041 0
9040 -9041 0
-8759 -8992 9042 0
8759 -9042 0
8992 -9042 0
9042 9043 0
-9042 -9043 0
-9003 -9043 9044 0
9003 -9044 0
9043 -9044 0
9044 9045 0
-9044 -9045 0
-9046 9045 0
9046 -9045 0
-9047 9041 0
9047 -9041 0
-9048 9039 0
9048 -9039 0
-9049 9038 0
9049 -9038 0
-9050 9037 0
9050 -9037 0
-9051 9028 0
9051 -9028 0
-9052 9013 0
9052 -9013 0
-9053 9012 0
9053 -9012 0
-9054 8987 0
9054 -8987 0
-9055 8960 0
9055 -8960 0
-9056 8937 0
9056 -8937 0
-9057 8915 0
9057 -8915 0
-9058 8913 0
9058 -8913 0
-9059 8900 0
9059 -8900 0
-9060 8524 0
9060 -8524 0
-9061 8884 0
9061 -8884 0
-9062 8877 0
9062 -8877 0
-9063 8534 0
9063 -8534 0
-9064 8867 0
9064 -8867 0
-9065 8865 0
9065 -8865 0
-9066 8845 0
9066 -8845 0
-9067 8817 0
9067 -8817 0
-9068 8799 0
9068 -8799 0
-9069 8781 0
9069 -8781 0
-9070 8754 0
9070 -8754 0
-9071 8692 0
9071 -8692 0
-9072 8660 0
9072 -8660 0
-9073 8635 0
9073 -8635 0
-9074 8588 0
9074 -8588 0
-9046 0
-9047 0
-9048 0
-9049 0
-9050 0
-9051 0
-9052 0
-9053 0
-9054 0
9055 0
-9056 0
9057 0
9058 0
-9059 0
9060 0
9061 0
-9062 0
-9063 0
-9064 0
-9065 0
-9066 0
9067 0
9068 0
-9069 0
-9070 0
-9071 0
-9072 0
-9073 0
9074 0
-1 0
-2 0
-3 0
-4 0
-5 0
-6 0
-7 0
-8 0
-9 0
-10 0
-11 0
-12 0
-13 0
-14 0
-15 0
-16 0
-17 0
-18 0
-19 0
-20 0
-21 0
-22 0
-23 0
-24 0
-25 0
-26 0
-27 0
-28 0
-29 0
