c Reachability CNF generated by lab1_parser_jkhare.cpp
c File: verilog_src/ex2.v
c Unroll k = 15
c Target at time k = 111111111111111
p cnf 3540 8415
17 26 0
-17 -26 0
15 27 0
-15 -27 0
14 28 0
-14 -28 0
13 29 0
-13 -29 0
12 30 0
-12 -30 0
11 31 0
-11 -31 0
10 32 0
-10 -32 0
9 33 0
-9 -33 0
8 34 0
-8 -34 0
7 35 0
-7 -35 0
6 36 0
-6 -36 0
5 37 0
-5 -37 0
-14 -13 38 0
14 -38 0
13 -38 0
-15 -38 39 0
15 -39 0
38 -39 0
39 40 0
-39 -40 0
-28 -13 41 0
28 -41 0
13 -41 0
-15 -41 42 0
15 -42 0
41 -42 0
42 43 0
-42 -43 0
-38 -43 44 0
38 -44 0
43 -44 0
44 45 0
-44 -45 0
-27 -45 46 0
27 -46 0
45 -46 0
46 47 0
-46 -47 0
-15 -44 48 0
15 -48 0
44 -48 0
48 49 0
-48 -49 0
-47 -49 50 0
47 -50 0
49 -50 0
-26 -50 51 0
26 -51 0
50 -51 0
-13 -43 52 0
13 -52 0
43 -52 0
52 53 0
-52 -53 0
-28 -53 54 0
28 -54 0
53 -54 0
54 55 0
-54 -55 0
-14 -52 56 0
14 -56 0
52 -56 0
56 57 0
-56 -57 0
-55 -57 58 0
55 -58 0
57 -58 0
-26 -58 59 0
26 -59 0
58 -59 0
-29 -42 60 0
29 -60 0
42 -60 0
60 61 0
-60 -61 0
-53 -61 62 0
53 -62 0
61 -62 0
-26 -62 63 0
26 -63 0
62 -63 0
-28 -29 64 0
28 -64 0
29 -64 0
-27 -64 65 0
27 -65 0
64 -65 0
65 66 0
-65 -66 0
-43 -66 67 0
43 -67 0
66 -67 0
67 68 0
-67 -68 0
-37 -1 69 0
37 -69 0
1 -69 0
69 70 0
-69 -70 0
-33 -69 71 0
33 -71 0
69 -71 0
71 72 0
-71 -72 0
-37 -2 73 0
37 -73 0
2 -73 0
73 74 0
-73 -74 0
-10 -74 75 0
10 -75 0
74 -75 0
75 76 0
-75 -76 0
-71 -76 77 0
71 -77 0
76 -77 0
77 78 0
-77 -78 0
-32 -73 79 0
32 -79 0
73 -79 0
79 80 0
-79 -80 0
-78 -80 81 0
78 -81 0
80 -81 0
81 82 0
-81 -82 0
-37 -3 83 0
37 -83 0
3 -83 0
83 84 0
-83 -84 0
-11 -84 85 0
11 -85 0
84 -85 0
85 86 0
-85 -86 0
-82 -86 87 0
82 -87 0
86 -87 0
87 88 0
-87 -88 0
-31 -83 89 0
31 -89 0
83 -89 0
89 90 0
-89 -90 0
-88 -90 91 0
88 -91 0
90 -91 0
91 92 0
-91 -92 0
-37 -4 93 0
37 -93 0
4 -93 0
93 94 0
-93 -94 0
-12 -94 95 0
12 -95 0
94 -95 0
95 96 0
-95 -96 0
-92 -96 97 0
92 -97 0
96 -97 0
97 98 0
-97 -98 0
-30 -93 99 0
30 -99 0
93 -99 0
99 100 0
-99 -100 0
-98 -100 101 0
98 -101 0
100 -101 0
101 102 0
-101 -102 0
-67 -102 103 0
67 -103 0
102 -103 0
103 104 0
-103 -104 0
-30 -68 105 0
30 -105 0
68 -105 0
105 106 0
-105 -106 0
-104 -106 107 0
104 -107 0
106 -107 0
107 108 0
-107 -108 0
-26 -108 109 0
26 -109 0
108 -109 0
109 110 0
-109 -110 0
-92 -93 111 0
92 -111 0
93 -111 0
-30 -111 112 0
30 -112 0
111 -112 0
112 113 0
-112 -113 0
-91 -94 114 0
91 -114 0
94 -114 0
-12 -114 115 0
12 -115 0
114 -115 0
115 116 0
-115 -116 0
-101 -116 117 0
101 -117 0
116 -117 0
117 118 0
-117 -118 0
-113 -118 119 0
113 -119 0
118 -119 0
119 120 0
-119 -120 0
-67 -120 121 0
67 -121 0
120 -121 0
121 122 0
-121 -122 0
-31 -68 123 0
31 -123 0
68 -123 0
123 124 0
-123 -124 0
-122 -124 125 0
122 -125 0
124 -125 0
125 126 0
-125 -126 0
-26 -126 127 0
26 -127 0
126 -127 0
127 128 0
-127 -128 0
-82 -83 129 0
82 -129 0
83 -129 0
-31 -129 130 0
31 -130 0
129 -130 0
130 131 0
-130 -131 0
-81 -84 132 0
81 -132 0
84 -132 0
-11 -132 133 0
11 -133 0
132 -133 0
133 134 0
-133 -134 0
-91 -134 135 0
91 -135 0
134 -135 0
135 136 0
-135 -136 0
-131 -136 137 0
131 -137 0
136 -137 0
137 138 0
-137 -138 0
-67 -138 139 0
67 -139 0
138 -139 0
139 140 0
-139 -140 0
-32 -68 141 0
32 -141 0
68 -141 0
141 142 0
-141 -142 0
-140 -142 143 0
140 -143 0
142 -143 0
143 144 0
-143 -144 0
-26 -144 145 0
26 -145 0
144 -145 0
145 146 0
-145 -146 0
-71 -73 147 0
71 -147 0
73 -147 0
-32 -147 148 0
32 -148 0
147 -148 0
148 149 0
-148 -149 0
-72 -74 150 0
72 -150 0
74 -150 0
-10 -150 151 0
10 -151 0
150 -151 0
151 152 0
-151 -152 0
-81 -152 153 0
81 -153 0
152 -153 0
153 154 0
-153 -154 0
-149 -154 155 0
149 -155 0
154 -155 0
155 156 0
-155 -156 0
-67 -156 157 0
67 -157 0
156 -157 0
157 158 0
-157 -158 0
-33 -68 159 0
33 -159 0
68 -159 0
159 160 0
-159 -160 0
-158 -160 161 0
158 -161 0
160 -161 0
161 162 0
-161 -162 0
-26 -162 163 0
26 -163 0
162 -163 0
163 164 0
-163 -164 0
-21 -43 165 0
21 -165 0
43 -165 0
165 166 0
-165 -166 0
-34 -42 167 0
34 -167 0
42 -167 0
167 168 0
-167 -168 0
-166 -168 169 0
166 -169 0
168 -169 0
169 170 0
-169 -170 0
-68 -170 171 0
68 -171 0
170 -171 0
171 172 0
-171 -172 0
-9 -70 173 0
9 -173 0
70 -173 0
173 174 0
-173 -174 0
-72 -174 175 0
72 -175 0
174 -175 0
-67 -175 176 0
67 -176 0
175 -176 0
176 177 0
-176 -177 0
-172 -177 178 0
172 -178 0
177 -178 0
-20 -43 179 0
20 -179 0
43 -179 0
179 180 0
-179 -180 0
-35 -42 181 0
35 -181 0
42 -181 0
181 182 0
-181 -182 0
-180 -182 183 0
180 -183 0
182 -183 0
183 184 0
-183 -184 0
-68 -184 185 0
68 -185 0
184 -185 0
185 186 0
-185 -186 0
-34 -67 187 0
34 -187 0
67 -187 0
187 188 0
-187 -188 0
-186 -188 189 0
186 -189 0
188 -189 0
-19 -43 190 0
19 -190 0
43 -190 0
190 191 0
-190 -191 0
-36 -42 192 0
36 -192 0
42 -192 0
192 193 0
-192 -193 0
-191 -193 194 0
191 -194 0
193 -194 0
194 195 0
-194 -195 0
-68 -195 196 0
68 -196 0
195 -196 0
196 197 0
-196 -197 0
-35 -67 198 0
35 -198 0
67 -198 0
198 199 0
-198 -199 0
-197 -199 200 0
197 -200 0
199 -200 0
-18 -43 201 0
18 -201 0
43 -201 0
201 202 0
-201 -202 0
-37 -42 203 0
37 -203 0
42 -203 0
203 204 0
-203 -204 0
-202 -204 205 0
202 -205 0
204 -205 0
205 206 0
-205 -206 0
-68 -206 207 0
68 -207 0
206 -207 0
207 208 0
-207 -208 0
-36 -67 209 0
36 -209 0
67 -209 0
209 210 0
-209 -210 0
-208 -210 211 0
208 -211 0
210 -211 0
-25 -65 212 0
25 -212 0
65 -212 0
212 213 0
-212 -213 0
-4 -66 214 0
4 -214 0
66 -214 0
214 215 0
-214 -215 0
-213 -215 216 0
213 -216 0
215 -216 0
216 217 0
-216 -217 0
-24 -65 218 0
24 -218 0
65 -218 0
218 219 0
-218 -219 0
-3 -66 220 0
3 -220 0
66 -220 0
220 221 0
-220 -221 0
-219 -221 222 0
219 -222 0
221 -222 0
222 223 0
-222 -223 0
-23 -65 224 0
23 -224 0
65 -224 0
224 225 0
-224 -225 0
-2 -66 226 0
2 -226 0
66 -226 0
226 227 0
-226 -227 0
-225 -227 228 0
225 -228 0
227 -228 0
228 229 0
-228 -229 0
-22 -65 230 0
22 -230 0
65 -230 0
230 231 0
-230 -231 0
-1 -66 232 0
1 -232 0
66 -232 0
232 233 0
-232 -233 0
-231 -233 234 0
231 -234 0
233 -234 0
234 235 0
-234 -235 0
-236 235 0
236 -235 0
-237 229 0
237 -229 0
-238 223 0
238 -223 0
-239 217 0
239 -217 0
-240 211 0
240 -211 0
-241 200 0
241 -200 0
-242 178 0
242 -178 0
-243 189 0
243 -189 0
-244 164 0
244 -164 0
-245 146 0
245 -146 0
-246 128 0
246 -128 0
-247 110 0
247 -110 0
-248 63 0
248 -63 0
-249 59 0
249 -59 0
-250 51 0
250 -51 0
252 261 0
-252 -261 0
250 262 0
-250 -262 0
249 263 0
-249 -263 0
248 264 0
-248 -264 0
247 265 0
-247 -265 0
246 266 0
-246 -266 0
245 267 0
-245 -267 0
244 268 0
-244 -268 0
243 269 0
-243 -269 0
242 270 0
-242 -270 0
241 271 0
-241 -271 0
240 272 0
-240 -272 0
-249 -248 273 0
249 -273 0
248 -273 0
-250 -273 274 0
250 -274 0
273 -274 0
274 275 0
-274 -275 0
-263 -248 276 0
263 -276 0
248 -276 0
-250 -276 277 0
250 -277 0
276 -277 0
277 278 0
-277 -278 0
-273 -278 279 0
273 -279 0
278 -279 0
279 280 0
-279 -280 0
-262 -280 281 0
262 -281 0
280 -281 0
281 282 0
-281 -282 0
-250 -279 283 0
250 -283 0
279 -283 0
283 284 0
-283 -284 0
-282 -284 285 0
282 -285 0
284 -285 0
-261 -285 286 0
261 -286 0
285 -286 0
-248 -278 287 0
248 -287 0
278 -287 0
287 288 0
-287 -288 0
-263 -288 289 0
263 -289 0
288 -289 0
289 290 0
-289 -290 0
-249 -287 291 0
249 -291 0
287 -291 0
291 292 0
-291 -292 0
-290 -292 293 0
290 -293 0
292 -293 0
-261 -293 294 0
261 -294 0
293 -294 0
-264 -277 295 0
264 -295 0
277 -295 0
295 296 0
-295 -296 0
-288 -296 297 0
288 -297 0
296 -297 0
-261 -297 298 0
261 -298 0
297 -298 0
-263 -264 299 0
263 -299 0
264 -299 0
-262 -299 300 0
262 -300 0
299 -300 0
300 301 0
-300 -301 0
-278 -301 302 0
278 -302 0
301 -302 0
302 303 0
-302 -303 0
-272 -236 304 0
272 -304 0
236 -304 0
304 305 0
-304 -305 0
-268 -304 306 0
268 -306 0
304 -306 0
306 307 0
-306 -307 0
-272 -237 308 0
272 -308 0
237 -308 0
308 309 0
-308 -309 0
-245 -309 310 0
245 -310 0
309 -310 0
310 311 0
-310 -311 0
-306 -311 312 0
306 -312 0
311 -312 0
312 313 0
-312 -313 0
-267 -308 314 0
267 -314 0
308 -314 0
314 315 0
-314 -315 0
-313 -315 316 0
313 -316 0
315 -316 0
316 317 0
-316 -317 0
-272 -238 318 0
272 -318 0
238 -318 0
318 319 0
-318 -319 0
-246 -319 320 0
246 -320 0
319 -320 0
320 321 0
-320 -321 0
-317 -321 322 0
317 -322 0
321 -322 0
322 323 0
-322 -323 0
-266 -318 324 0
266 -324 0
318 -324 0
324 325 0
-324 -325 0
-323 -325 326 0
323 -326 0
325 -326 0
326 327 0
-326 -327 0
-272 -239 328 0
272 -328 0
239 -328 0
328 329 0
-328 -329 0
-247 -329 330 0
247 -330 0
329 -330 0
330 331 0
-330 -331 0
-327 -331 332 0
327 -332 0
331 -332 0
332 333 0
-332 -333 0
-265 -328 334 0
265 -334 0
328 -334 0
334 335 0
-334 -335 0
-333 -335 336 0
333 -336 0
335 -336 0
336 337 0
-336 -337 0
-302 -337 338 0
302 -338 0
337 -338 0
338 339 0
-338 -339 0
-265 -303 340 0
265 -340 0
303 -340 0
340 341 0
-340 -341 0
-339 -341 342 0
339 -342 0
341 -342 0
342 343 0
-342 -343 0
-261 -343 344 0
261 -344 0
343 -344 0
344 345 0
-344 -345 0
-327 -328 346 0
327 -346 0
328 -346 0
-265 -346 347 0
265 -347 0
346 -347 0
347 348 0
-347 -348 0
-326 -329 349 0
326 -349 0
329 -349 0
-247 -349 350 0
247 -350 0
349 -350 0
350 351 0
-350 -351 0
-336 -351 352 0
336 -352 0
351 -352 0
352 353 0
-352 -353 0
-348 -353 354 0
348 -354 0
353 -354 0
354 355 0
-354 -355 0
-302 -355 356 0
302 -356 0
355 -356 0
356 357 0
-356 -357 0
-266 -303 358 0
266 -358 0
303 -358 0
358 359 0
-358 -359 0
-357 -359 360 0
357 -360 0
359 -360 0
360 361 0
-360 -361 0
-261 -361 362 0
261 -362 0
361 -362 0
362 363 0
-362 -363 0
-317 -318 364 0
317 -364 0
318 -364 0
-266 -364 365 0
266 -365 0
364 -365 0
365 366 0
-365 -366 0
-316 -319 367 0
316 -367 0
319 -367 0
-246 -367 368 0
246 -368 0
367 -368 0
368 369 0
-368 -369 0
-326 -369 370 0
326 -370 0
369 -370 0
370 371 0
-370 -371 0
-366 -371 372 0
366 -372 0
371 -372 0
372 373 0
-372 -373 0
-302 -373 374 0
302 -374 0
373 -374 0
374 375 0
-374 -375 0
-267 -303 376 0
267 -376 0
303 -376 0
376 377 0
-376 -377 0
-375 -377 378 0
375 -378 0
377 -378 0
378 379 0
-378 -379 0
-261 -379 380 0
261 -380 0
379 -380 0
380 381 0
-380 -381 0
-306 -308 382 0
306 -382 0
308 -382 0
-267 -382 383 0
267 -383 0
382 -383 0
383 384 0
-383 -384 0
-307 -309 385 0
307 -385 0
309 -385 0
-245 -385 386 0
245 -386 0
385 -386 0
386 387 0
-386 -387 0
-316 -387 388 0
316 -388 0
387 -388 0
388 389 0
-388 -389 0
-384 -389 390 0
384 -390 0
389 -390 0
390 391 0
-390 -391 0
-302 -391 392 0
302 -392 0
391 -392 0
392 393 0
-392 -393 0
-268 -303 394 0
268 -394 0
303 -394 0
394 395 0
-394 -395 0
-393 -395 396 0
393 -396 0
395 -396 0
396 397 0
-396 -397 0
-261 -397 398 0
261 -398 0
397 -398 0
398 399 0
-398 -399 0
-256 -278 400 0
256 -400 0
278 -400 0
400 401 0
-400 -401 0
-269 -277 402 0
269 -402 0
277 -402 0
402 403 0
-402 -403 0
-401 -403 404 0
401 -404 0
403 -404 0
404 405 0
-404 -405 0
-303 -405 406 0
303 -406 0
405 -406 0
406 407 0
-406 -407 0
-244 -305 408 0
244 -408 0
305 -408 0
408 409 0
-408 -409 0
-307 -409 410 0
307 -410 0
409 -410 0
-302 -410 411 0
302 -411 0
410 -411 0
411 412 0
-411 -412 0
-407 -412 413 0
407 -413 0
412 -413 0
-255 -278 414 0
255 -414 0
278 -414 0
414 415 0
-414 -415 0
-270 -277 416 0
270 -416 0
277 -416 0
416 417 0
-416 -417 0
-415 -417 418 0
415 -418 0
417 -418 0
418 419 0
-418 -419 0
-303 -419 420 0
303 -420 0
419 -420 0
420 421 0
-420 -421 0
-269 -302 422 0
269 -422 0
302 -422 0
422 423 0
-422 -423 0
-421 -423 424 0
421 -424 0
423 -424 0
-254 -278 425 0
254 -425 0
278 -425 0
425 426 0
-425 -426 0
-271 -277 427 0
271 -427 0
277 -427 0
427 428 0
-427 -428 0
-426 -428 429 0
426 -429 0
428 -429 0
429 430 0
-429 -430 0
-303 -430 431 0
303 -431 0
430 -431 0
431 432 0
-431 -432 0
-270 -302 433 0
270 -433 0
302 -433 0
433 434 0
-433 -434 0
-432 -434 435 0
432 -435 0
434 -435 0
-253 -278 436 0
253 -436 0
278 -436 0
436 437 0
-436 -437 0
-272 -277 438 0
272 -438 0
277 -438 0
438 439 0
-438 -439 0
-437 -439 440 0
437 -440 0
439 -440 0
440 441 0
-440 -441 0
-303 -441 442 0
303 -442 0
441 -442 0
442 443 0
-442 -443 0
-271 -302 444 0
271 -444 0
302 -444 0
444 445 0
-444 -445 0
-443 -445 446 0
443 -446 0
445 -446 0
-260 -300 447 0
260 -447 0
300 -447 0
447 448 0
-447 -448 0
-239 -301 449 0
239 -449 0
301 -449 0
449 450 0
-449 -450 0
-448 -450 451 0
448 -451 0
450 -451 0
451 452 0
-451 -452 0
-259 -300 453 0
259 -453 0
300 -453 0
453 454 0
-453 -454 0
-238 -301 455 0
238 -455 0
301 -455 0
455 456 0
-455 -456 0
-454 -456 457 0
454 -457 0
456 -457 0
457 458 0
-457 -458 0
-258 -300 459 0
258 -459 0
300 -459 0
459 460 0
-459 -460 0
-237 -301 461 0
237 -461 0
301 -461 0
461 462 0
-461 -462 0
-460 -462 463 0
460 -463 0
462 -463 0
463 464 0
-463 -464 0
-257 -300 465 0
257 -465 0
300 -465 0
465 466 0
-465 -466 0
-236 -301 467 0
236 -467 0
301 -467 0
467 468 0
-467 -468 0
-466 -468 469 0
466 -469 0
468 -469 0
469 470 0
-469 -470 0
-471 470 0
471 -470 0
-472 464 0
472 -464 0
-473 458 0
473 -458 0
-474 452 0
474 -452 0
-475 446 0
475 -446 0
-476 435 0
476 -435 0
-477 413 0
477 -413 0
-478 424 0
478 -424 0
-479 399 0
479 -399 0
-480 381 0
480 -381 0
-481 363 0
481 -363 0
-482 345 0
482 -345 0
-483 298 0
483 -298 0
-484 294 0
484 -294 0
-485 286 0
485 -286 0
487 496 0
-487 -496 0
485 497 0
-485 -497 0
484 498 0
-484 -498 0
483 499 0
-483 -499 0
482 500 0
-482 -500 0
481 501 0
-481 -501 0
480 502 0
-480 -502 0
479 503 0
-479 -503 0
478 504 0
-478 -504 0
477 505 0
-477 -505 0
476 506 0
-476 -506 0
475 507 0
-475 -507 0
-484 -483 508 0
484 -508 0
483 -508 0
-485 -508 509 0
485 -509 0
508 -509 0
509 510 0
-509 -510 0
-498 -483 511 0
498 -511 0
483 -511 0
-485 -511 512 0
485 -512 0
511 -512 0
512 513 0
-512 -513 0
-508 -513 514 0
508 -514 0
513 -514 0
514 515 0
-514 -515 0
-497 -515 516 0
497 -516 0
515 -516 0
516 517 0
-516 -517 0
-485 -514 518 0
485 -518 0
514 -518 0
518 519 0
-518 -519 0
-517 -519 520 0
517 -520 0
519 -520 0
-496 -520 521 0
496 -521 0
520 -521 0
-483 -513 522 0
483 -522 0
513 -522 0
522 523 0
-522 -523 0
-498 -523 524 0
498 -524 0
523 -524 0
524 525 0
-524 -525 0
-484 -522 526 0
484 -526 0
522 -526 0
526 527 0
-526 -527 0
-525 -527 528 0
525 -528 0
527 -528 0
-496 -528 529 0
496 -529 0
528 -529 0
-499 -512 530 0
499 -530 0
512 -530 0
530 531 0
-530 -531 0
-523 -531 532 0
523 -532 0
531 -532 0
-496 -532 533 0
496 -533 0
532 -533 0
-498 -499 534 0
498 -534 0
499 -534 0
-497 -534 535 0
497 -535 0
534 -535 0
535 536 0
-535 -536 0
-513 -536 537 0
513 -537 0
536 -537 0
537 538 0
-537 -538 0
-507 -471 539 0
507 -539 0
471 -539 0
539 540 0
-539 -540 0
-503 -539 541 0
503 -541 0
539 -541 0
541 542 0
-541 -542 0
-507 -472 543 0
507 -543 0
472 -543 0
543 544 0
-543 -544 0
-480 -544 545 0
480 -545 0
544 -545 0
545 546 0
-545 -546 0
-541 -546 547 0
541 -547 0
546 -547 0
547 548 0
-547 -548 0
-502 -543 549 0
502 -549 0
543 -549 0
549 550 0
-549 -550 0
-548 -550 551 0
548 -551 0
550 -551 0
551 552 0
-551 -552 0
-507 -473 553 0
507 -553 0
473 -553 0
553 554 0
-553 -554 0
-481 -554 555 0
481 -555 0
554 -555 0
555 556 0
-555 -556 0
-552 -556 557 0
552 -557 0
556 -557 0
557 558 0
-557 -558 0
-501 -553 559 0
501 -559 0
553 -559 0
559 560 0
-559 -560 0
-558 -560 561 0
558 -561 0
560 -561 0
561 562 0
-561 -562 0
-507 -474 563 0
507 -563 0
474 -563 0
563 564 0
-563 -564 0
-482 -564 565 0
482 -565 0
564 -565 0
565 566 0
-565 -566 0
-562 -566 567 0
562 -567 0
566 -567 0
567 568 0
-567 -568 0
-500 -563 569 0
500 -569 0
563 -569 0
569 570 0
-569 -570 0
-568 -570 571 0
568 -571 0
570 -571 0
571 572 0
-571 -572 0
-537 -572 573 0
537 -573 0
572 -573 0
573 574 0
-573 -574 0
-500 -538 575 0
500 -575 0
538 -575 0
575 576 0
-575 -576 0
-574 -576 577 0
574 -577 0
576 -577 0
577 578 0
-577 -578 0
-496 -578 579 0
496 -579 0
578 -579 0
579 580 0
-579 -580 0
-562 -563 581 0
562 -581 0
563 -581 0
-500 -581 582 0
500 -582 0
581 -582 0
582 583 0
-582 -583 0
-561 -564 584 0
561 -584 0
564 -584 0
-482 -584 585 0
482 -585 0
584 -585 0
585 586 0
-585 -586 0
-571 -586 587 0
571 -587 0
586 -587 0
587 588 0
-587 -588 0
-583 -588 589 0
583 -589 0
588 -589 0
589 590 0
-589 -590 0
-537 -590 591 0
537 -591 0
590 -591 0
591 592 0
-591 -592 0
-501 -538 593 0
501 -593 0
538 -593 0
593 594 0
-593 -594 0
-592 -594 595 0
592 -595 0
594 -595 0
595 596 0
-595 -596 0
-496 -596 597 0
496 -597 0
596 -597 0
597 598 0
-597 -598 0
-552 -553 599 0
552 -599 0
553 -599 0
-501 -599 600 0
501 -600 0
599 -600 0
600 601 0
-600 -601 0
-551 -554 602 0
551 -602 0
554 -602 0
-481 -602 603 0
481 -603 0
602 -603 0
603 604 0
-603 -604 0
-561 -604 605 0
561 -605 0
604 -605 0
605 606 0
-605 -606 0
-601 -606 607 0
601 -607 0
606 -607 0
607 608 0
-607 -608 0
-537 -608 609 0
537 -609 0
608 -609 0
609 610 0
-609 -610 0
-502 -538 611 0
502 -611 0
538 -611 0
611 612 0
-611 -612 0
-610 -612 613 0
610 -613 0
612 -613 0
613 614 0
-613 -614 0
-496 -614 615 0
496 -615 0
614 -615 0
615 616 0
-615 -616 0
-541 -543 617 0
541 -617 0
543 -617 0
-502 -617 618 0
502 -618 0
617 -618 0
618 619 0
-618 -619 0
-542 -544 620 0
542 -620 0
544 -620 0
-480 -620 621 0
480 -621 0
620 -621 0
621 622 0
-621 -622 0
-551 -622 623 0
551 -623 0
622 -623 0
623 624 0
-623 -624 0
-619 -624 625 0
619 -625 0
624 -625 0
625 626 0
-625 -626 0
-537 -626 627 0
537 -627 0
626 -627 0
627 628 0
-627 -628 0
-503 -538 629 0
503 -629 0
538 -629 0
629 630 0
-629 -630 0
-628 -630 631 0
628 -631 0
630 -631 0
631 632 0
-631 -632 0
-496 -632 633 0
496 -633 0
632 -633 0
633 634 0
-633 -634 0
-491 -513 635 0
491 -635 0
513 -635 0
635 636 0
-635 -636 0
-504 -512 637 0
504 -637 0
512 -637 0
637 638 0
-637 -638 0
-636 -638 639 0
636 -639 0
638 -639 0
639 640 0
-639 -640 0
-538 -640 641 0
538 -641 0
640 -641 0
641 642 0
-641 -642 0
-479 -540 643 0
479 -643 0
540 -643 0
643 644 0
-643 -644 0
-542 -644 645 0
542 -645 0
644 -645 0
-537 -645 646 0
537 -646 0
645 -646 0
646 647 0
-646 -647 0
-642 -647 648 0
642 -648 0
647 -648 0
-490 -513 649 0
490 -649 0
513 -649 0
649 650 0
-649 -650 0
-505 -512 651 0
505 -651 0
512 -651 0
651 652 0
-651 -652 0
-650 -652 653 0
650 -653 0
652 -653 0
653 654 0
-653 -654 0
-538 -654 655 0
538 -655 0
654 -655 0
655 656 0
-655 -656 0
-504 -537 657 0
504 -657 0
537 -657 0
657 658 0
-657 -658 0
-656 -658 659 0
656 -659 0
658 -659 0
-489 -513 660 0
489 -660 0
513 -660 0
660 661 0
-660 -661 0
-506 -512 662 0
506 -662 0
512 -662 0
662 663 0
-662 -663 0
-661 -663 664 0
661 -664 0
663 -664 0
664 665 0
-664 -665 0
-538 -665 666 0
538 -666 0
665 -666 0
666 667 0
-666 -667 0
-505 -537 668 0
505 -668 0
537 -668 0
668 669 0
-668 -669 0
-667 -669 670 0
667 -670 0
669 -670 0
-488 -513 671 0
488 -671 0
513 -671 0
671 672 0
-671 -672 0
-507 -512 673 0
507 -673 0
512 -673 0
673 674 0
-673 -674 0
-672 -674 675 0
672 -675 0
674 -675 0
675 676 0
-675 -676 0
-538 -676 677 0
538 -677 0
676 -677 0
677 678 0
-677 -678 0
-506 -537 679 0
506 -679 0
537 -679 0
679 680 0
-679 -680 0
-678 -680 681 0
678 -681 0
680 -681 0
-495 -535 682 0
495 -682 0
535 -682 0
682 683 0
-682 -683 0
-474 -536 684 0
474 -684 0
536 -684 0
684 685 0
-684 -685 0
-683 -685 686 0
683 -686 0
685 -686 0
686 687 0
-686 -687 0
-494 -535 688 0
494 -688 0
535 -688 0
688 689 0
-688 -689 0
-473 -536 690 0
473 -690 0
536 -690 0
690 691 0
-690 -691 0
-689 -691 692 0
689 -692 0
691 -692 0
692 693 0
-692 -693 0
-493 -535 694 0
493 -694 0
535 -694 0
694 695 0
-694 -695 0
-472 -536 696 0
472 -696 0
536 -696 0
696 697 0
-696 -697 0
-695 -697 698 0
695 -698 0
697 -698 0
698 699 0
-698 -699 0
-492 -535 700 0
492 -700 0
535 -700 0
700 701 0
-700 -701 0
-471 -536 702 0
471 -702 0
536 -702 0
702 703 0
-702 -703 0
-701 -703 704 0
701 -704 0
703 -704 0
704 705 0
-704 -705 0
-706 705 0
706 -705 0
-707 699 0
707 -699 0
-708 693 0
708 -693 0
-709 687 0
709 -687 0
-710 681 0
710 -681 0
-711 670 0
711 -670 0
-712 648 0
712 -648 0
-713 659 0
713 -659 0
-714 634 0
714 -634 0
-715 616 0
715 -616 0
-716 598 0
716 -598 0
-717 580 0
717 -580 0
-718 533 0
718 -533 0
-719 529 0
719 -529 0
-720 521 0
720 -521 0
722 731 0
-722 -731 0
720 732 0
-720 -732 0
719 733 0
-719 -733 0
718 734 0
-718 -734 0
717 735 0
-717 -735 0
716 736 0
-716 -736 0
715 737 0
-715 -737 0
714 738 0
-714 -738 0
713 739 0
-713 -739 0
712 740 0
-712 -740 0
711 741 0
-711 -741 0
710 742 0
-710 -742 0
-719 -718 743 0
719 -743 0
718 -743 0
-720 -743 744 0
720 -744 0
743 -744 0
744 745 0
-744 -745 0
-733 -718 746 0
733 -746 0
718 -746 0
-720 -746 747 0
720 -747 0
746 -747 0
747 748 0
-747 -748 0
-743 -748 749 0
743 -749 0
748 -749 0
749 750 0
-749 -750 0
-732 -750 751 0
732 -751 0
750 -751 0
751 752 0
-751 -752 0
-720 -749 753 0
720 -753 0
749 -753 0
753 754 0
-753 -754 0
-752 -754 755 0
752 -755 0
754 -755 0
-731 -755 756 0
731 -756 0
755 -756 0
-718 -748 757 0
718 -757 0
748 -757 0
757 758 0
-757 -758 0
-733 -758 759 0
733 -759 0
758 -759 0
759 760 0
-759 -760 0
-719 -757 761 0
719 -761 0
757 -761 0
761 762 0
-761 -762 0
-760 -762 763 0
760 -763 0
762 -763 0
-731 -763 764 0
731 -764 0
763 -764 0
-734 -747 765 0
734 -765 0
747 -765 0
765 766 0
-765 -766 0
-758 -766 767 0
758 -767 0
766 -767 0
-731 -767 768 0
731 -768 0
767 -768 0
-733 -734 769 0
733 -769 0
734 -769 0
-732 -769 770 0
732 -770 0
769 -770 0
770 771 0
-770 -771 0
-748 -771 772 0
748 -772 0
771 -772 0
772 773 0
-772 -773 0
-742 -706 774 0
742 -774 0
706 -774 0
774 775 0
-774 -775 0
-738 -774 776 0
738 -776 0
774 -776 0
776 777 0
-776 -777 0
-742 -707 778 0
742 -778 0
707 -778 0
778 779 0
-778 -779 0
-715 -779 780 0
715 -780 0
779 -780 0
780 781 0
-780 -781 0
-776 -781 782 0
776 -782 0
781 -782 0
782 783 0
-782 -783 0
-737 -778 784 0
737 -784 0
778 -784 0
784 785 0
-784 -785 0
-783 -785 786 0
783 -786 0
785 -786 0
786 787 0
-786 -787 0
-742 -708 788 0
742 -788 0
708 -788 0
788 789 0
-788 -789 0
-716 -789 790 0
716 -790 0
789 -790 0
790 791 0
-790 -791 0
-787 -791 792 0
787 -792 0
791 -792 0
792 793 0
-792 -793 0
-736 -788 794 0
736 -794 0
788 -794 0
794 795 0
-794 -795 0
-793 -795 796 0
793 -796 0
795 -796 0
796 797 0
-796 -797 0
-742 -709 798 0
742 -798 0
709 -798 0
798 799 0
-798 -799 0
-717 -799 800 0
717 -800 0
799 -800 0
800 801 0
-800 -801 0
-797 -801 802 0
797 -802 0
801 -802 0
802 803 0
-802 -803 0
-735 -798 804 0
735 -804 0
798 -804 0
804 805 0
-804 -805 0
-803 -805 806 0
803 -806 0
805 -806 0
806 807 0
-806 -807 0
-772 -807 808 0
772 -808 0
807 -808 0
808 809 0
-808 -809 0
-735 -773 810 0
735 -810 0
773 -810 0
810 811 0
-810 -811 0
-809 -811 812 0
809 -812 0
811 -812 0
812 813 0
-812 -813 0
-731 -813 814 0
731 -814 0
813 -814 0
814 815 0
-814 -815 0
-797 -798 816 0
797 -816 0
798 -816 0
-735 -816 817 0
735 -817 0
816 -817 0
817 818 0
-817 -818 0
-796 -799 819 0
796 -819 0
799 -819 0
-717 -819 820 0
717 -820 0
819 -820 0
820 821 0
-820 -821 0
-806 -821 822 0
806 -822 0
821 -822 0
822 823 0
-822 -823 0
-818 -823 824 0
818 -824 0
823 -824 0
824 825 0
-824 -825 0
-772 -825 826 0
772 -826 0
825 -826 0
826 827 0
-826 -827 0
-736 -773 828 0
736 -828 0
773 -828 0
828 829 0
-828 -829 0
-827 -829 830 0
827 -830 0
829 -830 0
830 831 0
-830 -831 0
-731 -831 832 0
731 -832 0
831 -832 0
832 833 0
-832 -833 0
-787 -788 834 0
787 -834 0
788 -834 0
-736 -834 835 0
736 -835 0
834 -835 0
835 836 0
-835 -836 0
-786 -789 837 0
786 -837 0
789 -837 0
-716 -837 838 0
716 -838 0
837 -838 0
838 839 0
-838 -839 0
-796 -839 840 0
796 -840 0
839 -840 0
840 841 0
-840 -841 0
-836 -841 842 0
836 -842 0
841 -842 0
842 843 0
-842 -843 0
-772 -843 844 0
772 -844 0
843 -844 0
844 845 0
-844 -845 0
-737 -773 846 0
737 -846 0
773 -846 0
846 847 0
-846 -847 0
-845 -847 848 0
845 -848 0
847 -848 0
848 849 0
-848 -849 0
-731 -849 850 0
731 -850 0
849 -850 0
850 851 0
-850 -851 0
-776 -778 852 0
776 -852 0
778 -852 0
-737 -852 853 0
737 -853 0
852 -853 0
853 854 0
-853 -854 0
-777 -779 855 0
777 -855 0
779 -855 0
-715 -855 856 0
715 -856 0
855 -856 0
856 857 0
-856 -857 0
-786 -857 858 0
786 -858 0
857 -858 0
858 859 0
-858 -859 0
-854 -859 860 0
854 -860 0
859 -860 0
860 861 0
-860 -861 0
-772 -861 862 0
772 -862 0
861 -862 0
862 863 0
-862 -863 0
-738 -773 864 0
738 -864 0
773 -864 0
864 865 0
-864 -865 0
-863 -865 866 0
863 -866 0
865 -866 0
866 867 0
-866 -867 0
-731 -867 868 0
731 -868 0
867 -868 0
868 869 0
-868 -869 0
-726 -748 870 0
726 -870 0
748 -870 0
870 871 0
-870 -871 0
-739 -747 872 0
739 -872 0
747 -872 0
872 873 0
-872 -873 0
-871 -873 874 0
871 -874 0
873 -874 0
874 875 0
-874 -875 0
-773 -875 876 0
773 -876 0
875 -876 0
876 877 0
-876 -877 0
-714 -775 878 0
714 -878 0
775 -878 0
878 879 0
-878 -879 0
-777 -879 880 0
777 -880 0
879 -880 0
-772 -880 881 0
772 -881 0
880 -881 0
881 882 0
-881 -882 0
-877 -882 883 0
877 -883 0
882 -883 0
-725 -748 884 0
725 -884 0
748 -884 0
884 885 0
-884 -885 0
-740 -747 886 0
740 -886 0
747 -886 0
886 887 0
-886 -887 0
-885 -887 888 0
885 -888 0
887 -888 0
888 889 0
-888 -889 0
-773 -889 890 0
773 -890 0
889 -890 0
890 891 0
-890 -891 0
-739 -772 892 0
739 -892 0
772 -892 0
892 893 0
-892 -893 0
-891 -893 894 0
891 -894 0
893 -894 0
-724 -748 895 0
724 -895 0
748 -895 0
895 896 0
-895 -896 0
-741 -747 897 0
741 -897 0
747 -897 0
897 898 0
-897 -898 0
-896 -898 899 0
896 -899 0
898 -899 0
899 900 0
-899 -900 0
-773 -900 901 0
773 -901 0
900 -901 0
901 902 0
-901 -902 0
-740 -772 903 0
740 -903 0
772 -903 0
903 904 0
-903 -904 0
-902 -904 905 0
902 -905 0
904 -905 0
-723 -748 906 0
723 -906 0
748 -906 0
906 907 0
-906 -907 0
-742 -747 908 0
742 -908 0
747 -908 0
908 909 0
-908 -909 0
-907 -909 910 0
907 -910 0
909 -910 0
910 911 0
-910 -911 0
-773 -911 912 0
773 -912 0
911 -912 0
912 913 0
-912 -913 0
-741 -772 914 0
741 -914 0
772 -914 0
914 915 0
-914 -915 0
-913 -915 916 0
913 -916 0
915 -916 0
-730 -770 917 0
730 -917 0
770 -917 0
917 918 0
-917 -918 0
-709 -771 919 0
709 -919 0
771 -919 0
919 920 0
-919 -920 0
-918 -920 921 0
918 -921 0
920 -921 0
921 922 0
-921 -922 0
-729 -770 923 0
729 -923 0
770 -923 0
923 924 0
-923 -924 0
-708 -771 925 0
708 -925 0
771 -925 0
925 926 0
-925 -926 0
-924 -926 927 0
924 -927 0
926 -927 0
927 928 0
-927 -928 0
-728 -770 929 0
728 -929 0
770 -929 0
929 930 0
-929 -930 0
-707 -771 931 0
707 -931 0
771 -931 0
931 932 0
-931 -932 0
-930 -932 933 0
930 -933 0
932 -933 0
933 934 0
-933 -934 0
-727 -770 935 0
727 -935 0
770 -935 0
935 936 0
-935 -936 0
-706 -771 937 0
706 -937 0
771 -937 0
937 938 0
-937 -938 0
-936 -938 939 0
936 -939 0
938 -939 0
939 940 0
-939 -940 0
-941 940 0
941 -940 0
-942 934 0
942 -934 0
-943 928 0
943 -928 0
-944 922 0
944 -922 0
-945 916 0
945 -916 0
-946 905 0
946 -905 0
-947 883 0
947 -883 0
-948 894 0
948 -894 0
-949 869 0
949 -869 0
-950 851 0
950 -851 0
-951 833 0
951 -833 0
-952 815 0
952 -815 0
-953 768 0
953 -768 0
-954 764 0
954 -764 0
-955 756 0
955 -756 0
957 966 0
-957 -966 0
955 967 0
-955 -967 0
954 968 0
-954 -968 0
953 969 0
-953 -969 0
952 970 0
-952 -970 0
951 971 0
-951 -971 0
950 972 0
-950 -972 0
949 973 0
-949 -973 0
948 974 0
-948 -974 0
947 975 0
-947 -975 0
946 976 0
-946 -976 0
945 977 0
-945 -977 0
-954 -953 978 0
954 -978 0
953 -978 0
-955 -978 979 0
955 -979 0
978 -979 0
979 980 0
-979 -980 0
-968 -953 981 0
968 -981 0
953 -981 0
-955 -981 982 0
955 -982 0
981 -982 0
982 983 0
-982 -983 0
-978 -983 984 0
978 -984 0
983 -984 0
984 985 0
-984 -985 0
-967 -985 986 0
967 -986 0
985 -986 0
986 987 0
-986 -987 0
-955 -984 988 0
955 -988 0
984 -988 0
988 989 0
-988 -989 0
-987 -989 990 0
987 -990 0
989 -990 0
-966 -990 991 0
966 -991 0
990 -991 0
-953 -983 992 0
953 -992 0
983 -992 0
992 993 0
-992 -993 0
-968 -993 994 0
968 -994 0
993 -994 0
994 995 0
-994 -995 0
-954 -992 996 0
954 -996 0
992 -996 0
996 997 0
-996 -997 0
-995 -997 998 0
995 -998 0
997 -998 0
-966 -998 999 0
966 -999 0
998 -999 0
-969 -982 1000 0
969 -1000 0
982 -1000 0
1000 1001 0
-1000 -1001 0
-993 -1001 1002 0
993 -1002 0
1001 -1002 0
-966 -1002 1003 0
966 -1003 0
1002 -1003 0
-968 -969 1004 0
968 -1004 0
969 -1004 0
-967 -1004 1005 0
967 -1005 0
1004 -1005 0
1005 1006 0
-1005 -1006 0
-983 -1006 1007 0
983 -1007 0
1006 -1007 0
1007 1008 0
-1007 -1008 0
-977 -941 1009 0
977 -1009 0
941 -1009 0
1009 1010 0
-1009 -1010 0
-973 -1009 1011 0
973 -1011 0
1009 -1011 0
1011 1012 0
-1011 -1012 0
-977 -942 1013 0
977 -1013 0
942 -1013 0
1013 1014 0
-1013 -1014 0
-950 -1014 1015 0
950 -1015 0
1014 -1015 0
1015 1016 0
-1015 -1016 0
-1011 -1016 1017 0
1011 -1017 0
1016 -1017 0
1017 1018 0
-1017 -1018 0
-972 -1013 1019 0
972 -1019 0
1013 -1019 0
1019 1020 0
-1019 -1020 0
-1018 -1020 1021 0
1018 -1021 0
1020 -1021 0
1021 1022 0
-1021 -1022 0
-977 -943 1023 0
977 -1023 0
943 -1023 0
1023 1024 0
-1023 -1024 0
-951 -1024 1025 0
951 -1025 0
1024 -1025 0
1025 1026 0
-1025 -1026 0
-1022 -1026 1027 0
1022 -1027 0
1026 -1027 0
1027 1028 0
-1027 -1028 0
-971 -1023 1029 0
971 -1029 0
1023 -1029 0
1029 1030 0
-1029 -1030 0
-1028 -1030 1031 0
1028 -1031 0
1030 -1031 0
1031 1032 0
-1031 -1032 0
-977 -944 1033 0
977 -1033 0
944 -1033 0
1033 1034 0
-1033 -1034 0
-952 -1034 1035 0
952 -1035 0
1034 -1035 0
1035 1036 0
-1035 -1036 0
-1032 -1036 1037 0
1032 -1037 0
1036 -1037 0
1037 1038 0
-1037 -1038 0
-970 -1033 1039 0
970 -1039 0
1033 -1039 0
1039 1040 0
-1039 -1040 0
-1038 -1040 1041 0
1038 -1041 0
1040 -1041 0
1041 1042 0
-1041 -1042 0
-1007 -1042 1043 0
1007 -1043 0
1042 -1043 0
1043 1044 0
-1043 -1044 0
-970 -1008 1045 0
970 -1045 0
1008 -1045 0
1045 1046 0
-1045 -1046 0
-1044 -1046 1047 0
1044 -1047 0
1046 -1047 0
1047 1048 0
-1047 -1048 0
-966 -1048 1049 0
966 -1049 0
1048 -1049 0
1049 1050 0
-1049 -1050 0
-1032 -1033 1051 0
1032 -1051 0
1033 -1051 0
-970 -1051 1052 0
970 -1052 0
1051 -1052 0
1052 1053 0
-1052 -1053 0
-1031 -1034 1054 0
1031 -1054 0
1034 -1054 0
-952 -1054 1055 0
952 -1055 0
1054 -1055 0
1055 1056 0
-1055 -1056 0
-1041 -1056 1057 0
1041 -1057 0
1056 -1057 0
1057 1058 0
-1057 -1058 0
-1053 -1058 1059 0
1053 -1059 0
1058 -1059 0
1059 1060 0
-1059 -1060 0
-1007 -1060 1061 0
1007 -1061 0
1060 -1061 0
1061 1062 0
-1061 -1062 0
-971 -1008 1063 0
971 -1063 0
1008 -1063 0
1063 1064 0
-1063 -1064 0
-1062 -1064 1065 0
1062 -1065 0
1064 -1065 0
1065 1066 0
-1065 -1066 0
-966 -1066 1067 0
966 -1067 0
1066 -1067 0
1067 1068 0
-1067 -1068 0
-1022 -1023 1069 0
1022 -1069 0
1023 -1069 0
-971 -1069 1070 0
971 -1070 0
1069 -1070 0
1070 1071 0
-1070 -1071 0
-1021 -1024 1072 0
1021 -1072 0
1024 -1072 0
-951 -1072 1073 0
951 -1073 0
1072 -1073 0
1073 1074 0
-1073 -1074 0
-1031 -1074 1075 0
1031 -1075 0
1074 -1075 0
1075 1076 0
-1075 -1076 0
-1071 -1076 1077 0
1071 -1077 0
1076 -1077 0
1077 1078 0
-1077 -1078 0
-1007 -1078 1079 0
1007 -1079 0
1078 -1079 0
1079 1080 0
-1079 -1080 0
-972 -1008 1081 0
972 -1081 0
1008 -1081 0
1081 1082 0
-1081 -1082 0
-1080 -1082 1083 0
1080 -1083 0
1082 -1083 0
1083 1084 0
-1083 -1084 0
-966 -1084 1085 0
966 -1085 0
1084 -1085 0
1085 1086 0
-1085 -1086 0
-1011 -1013 1087 0
1011 -1087 0
1013 -1087 0
-972 -1087 1088 0
972 -1088 0
1087 -1088 0
1088 1089 0
-1088 -1089 0
-1012 -1014 1090 0
1012 -1090 0
1014 -1090 0
-950 -1090 1091 0
950 -1091 0
1090 -1091 0
1091 1092 0
-1091 -1092 0
-1021 -1092 1093 0
1021 -1093 0
1092 -1093 0
1093 1094 0
-1093 -1094 0
-1089 -1094 1095 0
1089 -1095 0
1094 -1095 0
1095 1096 0
-1095 -1096 0
-1007 -1096 1097 0
1007 -1097 0
1096 -1097 0
1097 1098 0
-1097 -1098 0
-973 -1008 1099 0
973 -1099 0
1008 -1099 0
1099 1100 0
-1099 -1100 0
-1098 -1100 1101 0
1098 -1101 0
1100 -1101 0
1101 1102 0
-1101 -1102 0
-966 -1102 1103 0
966 -1103 0
1102 -1103 0
1103 1104 0
-1103 -1104 0
-961 -983 1105 0
961 -1105 0
983 -1105 0
1105 1106 0
-1105 -1106 0
-974 -982 1107 0
974 -1107 0
982 -1107 0
1107 1108 0
-1107 -1108 0
-1106 -1108 1109 0
1106 -1109 0
1108 -1109 0
1109 1110 0
-1109 -1110 0
-1008 -1110 1111 0
1008 -1111 0
1110 -1111 0
1111 1112 0
-1111 -1112 0
-949 -1010 1113 0
949 -1113 0
1010 -1113 0
1113 1114 0
-1113 -1114 0
-1012 -1114 1115 0
1012 -1115 0
1114 -1115 0
-1007 -1115 1116 0
1007 -1116 0
1115 -1116 0
1116 1117 0
-1116 -1117 0
-1112 -1117 1118 0
1112 -1118 0
1117 -1118 0
-960 -983 1119 0
960 -1119 0
983 -1119 0
1119 1120 0
-1119 -1120 0
-975 -982 1121 0
975 -1121 0
982 -1121 0
1121 1122 0
-1121 -1122 0
-1120 -1122 1123 0
1120 -1123 0
1122 -1123 0
1123 1124 0
-1123 -1124 0
-1008 -1124 1125 0
1008 -1125 0
1124 -1125 0
1125 1126 0
-1125 -1126 0
-974 -1007 1127 0
974 -1127 0
1007 -1127 0
1127 1128 0
-1127 -1128 0
-1126 -1128 1129 0
1126 -1129 0
1128 -1129 0
-959 -983 1130 0
959 -1130 0
983 -1130 0
1130 1131 0
-1130 -1131 0
-976 -982 1132 0
976 -1132 0
982 -1132 0
1132 1133 0
-1132 -1133 0
-1131 -1133 1134 0
1131 -1134 0
1133 -1134 0
1134 1135 0
-1134 -1135 0
-1008 -1135 1136 0
1008 -1136 0
1135 -1136 0
1136 1137 0
-1136 -1137 0
-975 -1007 1138 0
975 -1138 0
1007 -1138 0
1138 1139 0
-1138 -1139 0
-1137 -1139 1140 0
1137 -1140 0
1139 -1140 0
-958 -983 1141 0
958 -1141 0
983 -1141 0
1141 1142 0
-1141 -1142 0
-977 -982 1143 0
977 -1143 0
982 -1143 0
1143 1144 0
-1143 -1144 0
-1142 -1144 1145 0
1142 -1145 0
1144 -1145 0
1145 1146 0
-1145 -1146 0
-1008 -1146 1147 0
1008 -1147 0
1146 -1147 0
1147 1148 0
-1147 -1148 0
-976 -1007 1149 0
976 -1149 0
1007 -1149 0
1149 1150 0
-1149 -1150 0
-1148 -1150 1151 0
1148 -1151 0
1150 -1151 0
-965 -1005 1152 0
965 -1152 0
1005 -1152 0
1152 1153 0
-1152 -1153 0
-944 -1006 1154 0
944 -1154 0
1006 -1154 0
1154 1155 0
-1154 -1155 0
-1153 -1155 1156 0
1153 -1156 0
1155 -1156 0
1156 1157 0
-1156 -1157 0
-964 -1005 1158 0
964 -1158 0
1005 -1158 0
1158 1159 0
-1158 -1159 0
-943 -1006 1160 0
943 -1160 0
1006 -1160 0
1160 1161 0
-1160 -1161 0
-1159 -1161 1162 0
1159 -1162 0
1161 -1162 0
1162 1163 0
-1162 -1163 0
-963 -1005 1164 0
963 -1164 0
1005 -1164 0
1164 1165 0
-1164 -1165 0
-942 -1006 1166 0
942 -1166 0
1006 -1166 0
1166 1167 0
-1166 -1167 0
-1165 -1167 1168 0
1165 -1168 0
1167 -1168 0
1168 1169 0
-1168 -1169 0
-962 -1005 1170 0
962 -1170 0
1005 -1170 0
1170 1171 0
-1170 -1171 0
-941 -1006 1172 0
941 -1172 0
1006 -1172 0
1172 1173 0
-1172 -1173 0
-1171 -1173 1174 0
1171 -1174 0
1173 -1174 0
1174 1175 0
-1174 -1175 0
-1176 1175 0
1176 -1175 0
-1177 1169 0
1177 -1169 0
-1178 1163 0
1178 -1163 0
-1179 1157 0
1179 -1157 0
-1180 1151 0
1180 -1151 0
-1181 1140 0
1181 -1140 0
-1182 1118 0
1182 -1118 0
-1183 1129 0
1183 -1129 0
-1184 1104 0
1184 -1104 0
-1185 1086 0
1185 -1086 0
-1186 1068 0
1186 -1068 0
-1187 1050 0
1187 -1050 0
-1188 1003 0
1188 -1003 0
-1189 999 0
1189 -999 0
-1190 991 0
1190 -991 0
1192 1201 0
-1192 -1201 0
1190 1202 0
-1190 -1202 0
1189 1203 0
-1189 -1203 0
1188 1204 0
-1188 -1204 0
1187 1205 0
-1187 -1205 0
1186 1206 0
-1186 -1206 0
1185 1207 0
-1185 -1207 0
1184 1208 0
-1184 -1208 0
1183 1209 0
-1183 -1209 0
1182 1210 0
-1182 -1210 0
1181 1211 0
-1181 -1211 0
1180 1212 0
-1180 -1212 0
-1189 -1188 1213 0
1189 -1213 0
1188 -1213 0
-1190 -1213 1214 0
1190 -1214 0
1213 -1214 0
1214 1215 0
-1214 -1215 0
-1203 -1188 1216 0
1203 -1216 0
1188 -1216 0
-1190 -1216 1217 0
1190 -1217 0
1216 -1217 0
1217 1218 0
-1217 -1218 0
-1213 -1218 1219 0
1213 -1219 0
1218 -1219 0
1219 1220 0
-1219 -1220 0
-1202 -1220 1221 0
1202 -1221 0
1220 -1221 0
1221 1222 0
-1221 -1222 0
-1190 -1219 1223 0
1190 -1223 0
1219 -1223 0
1223 1224 0
-1223 -1224 0
-1222 -1224 1225 0
1222 -1225 0
1224 -1225 0
-1201 -1225 1226 0
1201 -1226 0
1225 -1226 0
-1188 -1218 1227 0
1188 -1227 0
1218 -1227 0
1227 1228 0
-1227 -1228 0
-1203 -1228 1229 0
1203 -1229 0
1228 -1229 0
1229 1230 0
-1229 -1230 0
-1189 -1227 1231 0
1189 -1231 0
1227 -1231 0
1231 1232 0
-1231 -1232 0
-1230 -1232 1233 0
1230 -1233 0
1232 -1233 0
-1201 -1233 1234 0
1201 -1234 0
1233 -1234 0
-1204 -1217 1235 0
1204 -1235 0
1217 -1235 0
1235 1236 0
-1235 -1236 0
-1228 -1236 1237 0
1228 -1237 0
1236 -1237 0
-1201 -1237 1238 0
1201 -1238 0
1237 -1238 0
-1203 -1204 1239 0
1203 -1239 0
1204 -1239 0
-1202 -1239 1240 0
1202 -1240 0
1239 -1240 0
1240 1241 0
-1240 -1241 0
-1218 -1241 1242 0
1218 -1242 0
1241 -1242 0
1242 1243 0
-1242 -1243 0
-1212 -1176 1244 0
1212 -1244 0
1176 -1244 0
1244 1245 0
-1244 -1245 0
-1208 -1244 1246 0
1208 -1246 0
1244 -1246 0
1246 1247 0
-1246 -1247 0
-1212 -1177 1248 0
1212 -1248 0
1177 -1248 0
1248 1249 0
-1248 -1249 0
-1185 -1249 1250 0
1185 -1250 0
1249 -1250 0
1250 1251 0
-1250 -1251 0
-1246 -1251 1252 0
1246 -1252 0
1251 -1252 0
1252 1253 0
-1252 -1253 0
-1207 -1248 1254 0
1207 -1254 0
1248 -1254 0
1254 1255 0
-1254 -1255 0
-1253 -1255 1256 0
1253 -1256 0
1255 -1256 0
1256 1257 0
-1256 -1257 0
-1212 -1178 1258 0
1212 -1258 0
1178 -1258 0
1258 1259 0
-1258 -1259 0
-1186 -1259 1260 0
1186 -1260 0
1259 -1260 0
1260 1261 0
-1260 -1261 0
-1257 -1261 1262 0
1257 -1262 0
1261 -1262 0
1262 1263 0
-1262 -1263 0
-1206 -1258 1264 0
1206 -1264 0
1258 -1264 0
1264 1265 0
-1264 -1265 0
-1263 -1265 1266 0
1263 -1266 0
1265 -1266 0
1266 1267 0
-1266 -1267 0
-1212 -1179 1268 0
1212 -1268 0
1179 -1268 0
1268 1269 0
-1268 -1269 0
-1187 -1269 1270 0
1187 -1270 0
1269 -1270 0
1270 1271 0
-1270 -1271 0
-1267 -1271 1272 0
1267 -1272 0
1271 -1272 0
1272 1273 0
-1272 -1273 0
-1205 -1268 1274 0
1205 -1274 0
1268 -1274 0
1274 1275 0
-1274 -1275 0
-1273 -1275 1276 0
1273 -1276 0
1275 -1276 0
1276 1277 0
-1276 -1277 0
-1242 -1277 1278 0
1242 -1278 0
1277 -1278 0
1278 1279 0
-1278 -1279 0
-1205 -1243 1280 0
1205 -1280 0
1243 -1280 0
1280 1281 0
-1280 -1281 0
-1279 -1281 1282 0
1279 -1282 0
1281 -1282 0
1282 1283 0
-1282 -1283 0
-1201 -1283 1284 0
1201 -1284 0
1283 -1284 0
1284 1285 0
-1284 -1285 0
-1267 -1268 1286 0
1267 -1286 0
1268 -1286 0
-1205 -1286 1287 0
1205 -1287 0
1286 -1287 0
1287 1288 0
-1287 -1288 0
-1266 -1269 1289 0
1266 -1289 0
1269 -1289 0
-1187 -1289 1290 0
1187 -1290 0
1289 -1290 0
1290 1291 0
-1290 -1291 0
-1276 -1291 1292 0
1276 -1292 0
1291 -1292 0
1292 1293 0
-1292 -1293 0
-1288 -1293 1294 0
1288 -1294 0
1293 -1294 0
1294 1295 0
-1294 -1295 0
-1242 -1295 1296 0
1242 -1296 0
1295 -1296 0
1296 1297 0
-1296 -1297 0
-1206 -1243 1298 0
1206 -1298 0
1243 -1298 0
1298 1299 0
-1298 -1299 0
-1297 -1299 1300 0
1297 -1300 0
1299 -1300 0
1300 1301 0
-1300 -1301 0
-1201 -1301 1302 0
1201 -1302 0
1301 -1302 0
1302 1303 0
-1302 -1303 0
-1257 -1258 1304 0
1257 -1304 0
1258 -1304 0
-1206 -1304 1305 0
1206 -1305 0
1304 -1305 0
1305 1306 0
-1305 -1306 0
-1256 -1259 1307 0
1256 -1307 0
1259 -1307 0
-1186 -1307 1308 0
1186 -1308 0
1307 -1308 0
1308 1309 0
-1308 -1309 0
-1266 -1309 1310 0
1266 -1310 0
1309 -1310 0
1310 1311 0
-1310 -1311 0
-1306 -1311 1312 0
1306 -1312 0
1311 -1312 0
1312 1313 0
-1312 -1313 0
-1242 -1313 1314 0
1242 -1314 0
1313 -1314 0
1314 1315 0
-1314 -1315 0
-1207 -1243 1316 0
1207 -1316 0
1243 -1316 0
1316 1317 0
-1316 -1317 0
-1315 -1317 1318 0
1315 -1318 0
1317 -1318 0
1318 1319 0
-1318 -1319 0
-1201 -1319 1320 0
1201 -1320 0
1319 -1320 0
1320 1321 0
-1320 -1321 0
-1246 -1248 1322 0
1246 -1322 0
1248 -1322 0
-1207 -1322 1323 0
1207 -1323 0
1322 -1323 0
1323 1324 0
-1323 -1324 0
-1247 -1249 1325 0
1247 -1325 0
1249 -1325 0
-1185 -1325 1326 0
1185 -1326 0
1325 -1326 0
1326 1327 0
-1326 -1327 0
-1256 -1327 1328 0
1256 -1328 0
1327 -1328 0
1328 1329 0
-1328 -1329 0
-1324 -1329 1330 0
1324 -1330 0
1329 -1330 0
1330 1331 0
-1330 -1331 0
-1242 -1331 1332 0
1242 -1332 0
1331 -1332 0
1332 1333 0
-1332 -1333 0
-1208 -1243 1334 0
1208 -1334 0
1243 -1334 0
1334 1335 0
-1334 -1335 0
-1333 -1335 1336 0
1333 -1336 0
1335 -1336 0
1336 1337 0
-1336 -1337 0
-1201 -1337 1338 0
1201 -1338 0
1337 -1338 0
1338 1339 0
-1338 -1339 0
-1196 -1218 1340 0
1196 -1340 0
1218 -1340 0
1340 1341 0
-1340 -1341 0
-1209 -1217 1342 0
1209 -1342 0
1217 -1342 0
1342 1343 0
-1342 -1343 0
-1341 -1343 1344 0
1341 -1344 0
1343 -1344 0
1344 1345 0
-1344 -1345 0
-1243 -1345 1346 0
1243 -1346 0
1345 -1346 0
1346 1347 0
-1346 -1347 0
-1184 -1245 1348 0
1184 -1348 0
1245 -1348 0
1348 1349 0
-1348 -1349 0
-1247 -1349 1350 0
1247 -1350 0
1349 -1350 0
-1242 -1350 1351 0
1242 -1351 0
1350 -1351 0
1351 1352 0
-1351 -1352 0
-1347 -1352 1353 0
1347 -1353 0
1352 -1353 0
-1195 -1218 1354 0
1195 -1354 0
1218 -1354 0
1354 1355 0
-1354 -1355 0
-1210 -1217 1356 0
1210 -1356 0
1217 -1356 0
1356 1357 0
-1356 -1357 0
-1355 -1357 1358 0
1355 -1358 0
1357 -1358 0
1358 1359 0
-1358 -1359 0
-1243 -1359 1360 0
1243 -1360 0
1359 -1360 0
1360 1361 0
-1360 -1361 0
-1209 -1242 1362 0
1209 -1362 0
1242 -1362 0
1362 1363 0
-1362 -1363 0
-1361 -1363 1364 0
1361 -1364 0
1363 -1364 0
-1194 -1218 1365 0
1194 -1365 0
1218 -1365 0
1365 1366 0
-1365 -1366 0
-1211 -1217 1367 0
1211 -1367 0
1217 -1367 0
1367 1368 0
-1367 -1368 0
-1366 -1368 1369 0
1366 -1369 0
1368 -1369 0
1369 1370 0
-1369 -1370 0
-1243 -1370 1371 0
1243 -1371 0
1370 -1371 0
1371 1372 0
-1371 -1372 0
-1210 -1242 1373 0
1210 -1373 0
1242 -1373 0
1373 1374 0
-1373 -1374 0
-1372 -1374 1375 0
1372 -1375 0
1374 -1375 0
-1193 -1218 1376 0
1193 -1376 0
1218 -1376 0
1376 1377 0
-1376 -1377 0
-1212 -1217 1378 0
1212 -1378 0
1217 -1378 0
1378 1379 0
-1378 -1379 0
-1377 -1379 1380 0
1377 -1380 0
1379 -1380 0
1380 1381 0
-1380 -1381 0
-1243 -1381 1382 0
1243 -1382 0
1381 -1382 0
1382 1383 0
-1382 -1383 0
-1211 -1242 1384 0
1211 -1384 0
1242 -1384 0
1384 1385 0
-1384 -1385 0
-1383 -1385 1386 0
1383 -1386 0
1385 -1386 0
-1200 -1240 1387 0
1200 -1387 0
1240 -1387 0
1387 1388 0
-1387 -1388 0
-1179 -1241 1389 0
1179 -1389 0
1241 -1389 0
1389 1390 0
-1389 -1390 0
-1388 -1390 1391 0
1388 -1391 0
1390 -1391 0
1391 1392 0
-1391 -1392 0
-1199 -1240 1393 0
1199 -1393 0
1240 -1393 0
1393 1394 0
-1393 -1394 0
-1178 -1241 1395 0
1178 -1395 0
1241 -1395 0
1395 1396 0
-1395 -1396 0
-1394 -1396 1397 0
1394 -1397 0
1396 -1397 0
1397 1398 0
-1397 -1398 0
-1198 -1240 1399 0
1198 -1399 0
1240 -1399 0
1399 1400 0
-1399 -1400 0
-1177 -1241 1401 0
1177 -1401 0
1241 -1401 0
1401 1402 0
-1401 -1402 0
-1400 -1402 1403 0
1400 -1403 0
1402 -1403 0
1403 1404 0
-1403 -1404 0
-1197 -1240 1405 0
1197 -1405 0
1240 -1405 0
1405 1406 0
-1405 -1406 0
-1176 -1241 1407 0
1176 -1407 0
1241 -1407 0
1407 1408 0
-1407 -1408 0
-1406 -1408 1409 0
1406 -1409 0
1408 -1409 0
1409 1410 0
-1409 -1410 0
-1411 1410 0
1411 -1410 0
-1412 1404 0
1412 -1404 0
-1413 1398 0
1413 -1398 0
-1414 1392 0
1414 -1392 0
-1415 1386 0
1415 -1386 0
-1416 1375 0
1416 -1375 0
-1417 1353 0
1417 -1353 0
-1418 1364 0
1418 -1364 0
-1419 1339 0
1419 -1339 0
-1420 1321 0
1420 -1321 0
-1421 1303 0
1421 -1303 0
-1422 1285 0
1422 -1285 0
-1423 1238 0
1423 -1238 0
-1424 1234 0
1424 -1234 0
-1425 1226 0
1425 -1226 0
1427 1436 0
-1427 -1436 0
1425 1437 0
-1425 -1437 0
1424 1438 0
-1424 -1438 0
1423 1439 0
-1423 -1439 0
1422 1440 0
-1422 -1440 0
1421 1441 0
-1421 -1441 0
1420 1442 0
-1420 -1442 0
1419 1443 0
-1419 -1443 0
1418 1444 0
-1418 -1444 0
1417 1445 0
-1417 -1445 0
1416 1446 0
-1416 -1446 0
1415 1447 0
-1415 -1447 0
-1424 -1423 1448 0
1424 -1448 0
1423 -1448 0
-1425 -1448 1449 0
1425 -1449 0
1448 -1449 0
1449 1450 0
-1449 -1450 0
-1438 -1423 1451 0
1438 -1451 0
1423 -1451 0
-1425 -1451 1452 0
1425 -1452 0
1451 -1452 0
1452 1453 0
-1452 -1453 0
-1448 -1453 1454 0
1448 -1454 0
1453 -1454 0
1454 1455 0
-1454 -1455 0
-1437 -1455 1456 0
1437 -1456 0
1455 -1456 0
1456 1457 0
-1456 -1457 0
-1425 -1454 1458 0
1425 -1458 0
1454 -1458 0
1458 1459 0
-1458 -1459 0
-1457 -1459 1460 0
1457 -1460 0
1459 -1460 0
-1436 -1460 1461 0
1436 -1461 0
1460 -1461 0
-1423 -1453 1462 0
1423 -1462 0
1453 -1462 0
1462 1463 0
-1462 -1463 0
-1438 -1463 1464 0
1438 -1464 0
1463 -1464 0
1464 1465 0
-1464 -1465 0
-1424 -1462 1466 0
1424 -1466 0
1462 -1466 0
1466 1467 0
-1466 -1467 0
-1465 -1467 1468 0
1465 -1468 0
1467 -1468 0
-1436 -1468 1469 0
1436 -1469 0
1468 -1469 0
-1439 -1452 1470 0
1439 -1470 0
1452 -1470 0
1470 1471 0
-1470 -1471 0
-1463 -1471 1472 0
1463 -1472 0
1471 -1472 0
-1436 -1472 1473 0
1436 -1473 0
1472 -1473 0
-1438 -1439 1474 0
1438 -1474 0
1439 -1474 0
-1437 -1474 1475 0
1437 -1475 0
1474 -1475 0
1475 1476 0
-1475 -1476 0
-1453 -1476 1477 0
1453 -1477 0
1476 -1477 0
1477 1478 0
-1477 -1478 0
-1447 -1411 1479 0
1447 -1479 0
1411 -1479 0
1479 1480 0
-1479 -1480 0
-1443 -1479 1481 0
1443 -1481 0
1479 -1481 0
1481 1482 0
-1481 -1482 0
-1447 -1412 1483 0
1447 -1483 0
1412 -1483 0
1483 1484 0
-1483 -1484 0
-1420 -1484 1485 0
1420 -1485 0
1484 -1485 0
1485 1486 0
-1485 -1486 0
-1481 -1486 1487 0
1481 -1487 0
1486 -1487 0
1487 1488 0
-1487 -1488 0
-1442 -1483 1489 0
1442 -1489 0
1483 -1489 0
1489 1490 0
-1489 -1490 0
-1488 -1490 1491 0
1488 -1491 0
1490 -1491 0
1491 1492 0
-1491 -1492 0
-1447 -1413 1493 0
1447 -1493 0
1413 -1493 0
1493 1494 0
-1493 -1494 0
-1421 -1494 1495 0
1421 -1495 0
1494 -1495 0
1495 1496 0
-1495 -1496 0
-1492 -1496 1497 0
1492 -1497 0
1496 -1497 0
1497 1498 0
-1497 -1498 0
-1441 -1493 1499 0
1441 -1499 0
1493 -1499 0
1499 1500 0
-1499 -1500 0
-1498 -1500 1501 0
1498 -1501 0
1500 -1501 0
1501 1502 0
-1501 -1502 0
-1447 -1414 1503 0
1447 -1503 0
1414 -1503 0
1503 1504 0
-1503 -1504 0
-1422 -1504 1505 0
1422 -1505 0
1504 -1505 0
1505 1506 0
-1505 -1506 0
-1502 -1506 1507 0
1502 -1507 0
1506 -1507 0
1507 1508 0
-1507 -1508 0
-1440 -1503 1509 0
1440 -1509 0
1503 -1509 0
1509 1510 0
-1509 -1510 0
-1508 -1510 1511 0
1508 -1511 0
1510 -1511 0
1511 1512 0
-1511 -1512 0
-1477 -1512 1513 0
1477 -1513 0
1512 -1513 0
1513 1514 0
-1513 -1514 0
-1440 -1478 1515 0
1440 -1515 0
1478 -1515 0
1515 1516 0
-1515 -1516 0
-1514 -1516 1517 0
1514 -1517 0
1516 -1517 0
1517 1518 0
-1517 -1518 0
-1436 -1518 1519 0
1436 -1519 0
1518 -1519 0
1519 1520 0
-1519 -1520 0
-1502 -1503 1521 0
1502 -1521 0
1503 -1521 0
-1440 -1521 1522 0
1440 -1522 0
1521 -1522 0
1522 1523 0
-1522 -1523 0
-1501 -1504 1524 0
1501 -1524 0
1504 -1524 0
-1422 -1524 1525 0
1422 -1525 0
1524 -1525 0
1525 1526 0
-1525 -1526 0
-1511 -1526 1527 0
1511 -1527 0
1526 -1527 0
1527 1528 0
-1527 -1528 0
-1523 -1528 1529 0
1523 -1529 0
1528 -1529 0
1529 1530 0
-1529 -1530 0
-1477 -1530 1531 0
1477 -1531 0
1530 -1531 0
1531 1532 0
-1531 -1532 0
-1441 -1478 1533 0
1441 -1533 0
1478 -1533 0
1533 1534 0
-1533 -1534 0
-1532 -1534 1535 0
1532 -1535 0
1534 -1535 0
1535 1536 0
-1535 -1536 0
-1436 -1536 1537 0
1436 -1537 0
1536 -1537 0
1537 1538 0
-1537 -1538 0
-1492 -1493 1539 0
1492 -1539 0
1493 -1539 0
-1441 -1539 1540 0
1441 -1540 0
1539 -1540 0
1540 1541 0
-1540 -1541 0
-1491 -1494 1542 0
1491 -1542 0
1494 -1542 0
-1421 -1542 1543 0
1421 -1543 0
1542 -1543 0
1543 1544 0
-1543 -1544 0
-1501 -1544 1545 0
1501 -1545 0
1544 -1545 0
1545 1546 0
-1545 -1546 0
-1541 -1546 1547 0
1541 -1547 0
1546 -1547 0
1547 1548 0
-1547 -1548 0
-1477 -1548 1549 0
1477 -1549 0
1548 -1549 0
1549 1550 0
-1549 -1550 0
-1442 -1478 1551 0
1442 -1551 0
1478 -1551 0
1551 1552 0
-1551 -1552 0
-1550 -1552 1553 0
1550 -1553 0
1552 -1553 0
1553 1554 0
-1553 -1554 0
-1436 -1554 1555 0
1436 -1555 0
1554 -1555 0
1555 1556 0
-1555 -1556 0
-1481 -1483 1557 0
1481 -1557 0
1483 -1557 0
-1442 -1557 1558 0
1442 -1558 0
1557 -1558 0
1558 1559 0
-1558 -1559 0
-1482 -1484 1560 0
1482 -1560 0
1484 -1560 0
-1420 -1560 1561 0
1420 -1561 0
1560 -1561 0
1561 1562 0
-1561 -1562 0
-1491 -1562 1563 0
1491 -1563 0
1562 -1563 0
1563 1564 0
-1563 -1564 0
-1559 -1564 1565 0
1559 -1565 0
1564 -1565 0
1565 1566 0
-1565 -1566 0
-1477 -1566 1567 0
1477 -1567 0
1566 -1567 0
1567 1568 0
-1567 -1568 0
-1443 -1478 1569 0
1443 -1569 0
1478 -1569 0
1569 1570 0
-1569 -1570 0
-1568 -1570 1571 0
1568 -1571 0
1570 -1571 0
1571 1572 0
-1571 -1572 0
-1436 -1572 1573 0
1436 -1573 0
1572 -1573 0
1573 1574 0
-1573 -1574 0
-1431 -1453 1575 0
1431 -1575 0
1453 -1575 0
1575 1576 0
-1575 -1576 0
-1444 -1452 1577 0
1444 -1577 0
1452 -1577 0
1577 1578 0
-1577 -1578 0
-1576 -1578 1579 0
1576 -1579 0
1578 -1579 0
1579 1580 0
-1579 -1580 0
-1478 -1580 1581 0
1478 -1581 0
1580 -1581 0
1581 1582 0
-1581 -1582 0
-1419 -1480 1583 0
1419 -1583 0
1480 -1583 0
1583 1584 0
-1583 -1584 0
-1482 -1584 1585 0
1482 -1585 0
1584 -1585 0
-1477 -1585 1586 0
1477 -1586 0
1585 -1586 0
1586 1587 0
-1586 -1587 0
-1582 -1587 1588 0
1582 -1588 0
1587 -1588 0
-1430 -1453 1589 0
1430 -1589 0
1453 -1589 0
1589 1590 0
-1589 -1590 0
-1445 -1452 1591 0
1445 -1591 0
1452 -1591 0
1591 1592 0
-1591 -1592 0
-1590 -1592 1593 0
1590 -1593 0
1592 -1593 0
1593 1594 0
-1593 -1594 0
-1478 -1594 1595 0
1478 -1595 0
1594 -1595 0
1595 1596 0
-1595 -1596 0
-1444 -1477 1597 0
1444 -1597 0
1477 -1597 0
1597 1598 0
-1597 -1598 0
-1596 -1598 1599 0
1596 -1599 0
1598 -1599 0
-1429 -1453 1600 0
1429 -1600 0
1453 -1600 0
1600 1601 0
-1600 -1601 0
-1446 -1452 1602 0
1446 -1602 0
1452 -1602 0
1602 1603 0
-1602 -1603 0
-1601 -1603 1604 0
1601 -1604 0
1603 -1604 0
1604 1605 0
-1604 -1605 0
-1478 -1605 1606 0
1478 -1606 0
1605 -1606 0
1606 1607 0
-1606 -1607 0
-1445 -1477 1608 0
1445 -1608 0
1477 -1608 0
1608 1609 0
-1608 -1609 0
-1607 -1609 1610 0
1607 -1610 0
1609 -1610 0
-1428 -1453 1611 0
1428 -1611 0
1453 -1611 0
1611 1612 0
-1611 -1612 0
-1447 -1452 1613 0
1447 -1613 0
1452 -1613 0
1613 1614 0
-1613 -1614 0
-1612 -1614 1615 0
1612 -1615 0
1614 -1615 0
1615 1616 0
-1615 -1616 0
-1478 -1616 1617 0
1478 -1617 0
1616 -1617 0
1617 1618 0
-1617 -1618 0
-1446 -1477 1619 0
1446 -1619 0
1477 -1619 0
1619 1620 0
-1619 -1620 0
-1618 -1620 1621 0
1618 -1621 0
1620 -1621 0
-1435 -1475 1622 0
1435 -1622 0
1475 -1622 0
1622 1623 0
-1622 -1623 0
-1414 -1476 1624 0
1414 -1624 0
1476 -1624 0
1624 1625 0
-1624 -1625 0
-1623 -1625 1626 0
1623 -1626 0
1625 -1626 0
1626 1627 0
-1626 -1627 0
-1434 -1475 1628 0
1434 -1628 0
1475 -1628 0
1628 1629 0
-1628 -1629 0
-1413 -1476 1630 0
1413 -1630 0
1476 -1630 0
1630 1631 0
-1630 -1631 0
-1629 -1631 1632 0
1629 -1632 0
1631 -1632 0
1632 1633 0
-1632 -1633 0
-1433 -1475 1634 0
1433 -1634 0
1475 -1634 0
1634 1635 0
-1634 -1635 0
-1412 -1476 1636 0
1412 -1636 0
1476 -1636 0
1636 1637 0
-1636 -1637 0
-1635 -1637 1638 0
1635 -1638 0
1637 -1638 0
1638 1639 0
-1638 -1639 0
-1432 -1475 1640 0
1432 -1640 0
1475 -1640 0
1640 1641 0
-1640 -1641 0
-1411 -1476 1642 0
1411 -1642 0
1476 -1642 0
1642 1643 0
-1642 -1643 0
-1641 -1643 1644 0
1641 -1644 0
1643 -1644 0
1644 1645 0
-1644 -1645 0
-1646 1645 0
1646 -1645 0
-1647 1639 0
1647 -1639 0
-1648 1633 0
1648 -1633 0
-1649 1627 0
1649 -1627 0
-1650 1621 0
1650 -1621 0
-1651 1610 0
1651 -1610 0
-1652 1588 0
1652 -1588 0
-1653 1599 0
1653 -1599 0
-1654 1574 0
1654 -1574 0
-1655 1556 0
1655 -1556 0
-1656 1538 0
1656 -1538 0
-1657 1520 0
1657 -1520 0
-1658 1473 0
1658 -1473 0
-1659 1469 0
1659 -1469 0
-1660 1461 0
1660 -1461 0
1662 1671 0
-1662 -1671 0
1660 1672 0
-1660 -1672 0
1659 1673 0
-1659 -1673 0
1658 1674 0
-1658 -1674 0
1657 1675 0
-1657 -1675 0
1656 1676 0
-1656 -1676 0
1655 1677 0
-1655 -1677 0
1654 1678 0
-1654 -1678 0
1653 1679 0
-1653 -1679 0
1652 1680 0
-1652 -1680 0
1651 1681 0
-1651 -1681 0
1650 1682 0
-1650 -1682 0
-1659 -1658 1683 0
1659 -1683 0
1658 -1683 0
-1660 -1683 1684 0
1660 -1684 0
1683 -1684 0
1684 1685 0
-1684 -1685 0
-1673 -1658 1686 0
1673 -1686 0
1658 -1686 0
-1660 -1686 1687 0
1660 -1687 0
1686 -1687 0
1687 1688 0
-1687 -1688 0
-1683 -1688 1689 0
1683 -1689 0
1688 -1689 0
1689 1690 0
-1689 -1690 0
-1672 -1690 1691 0
1672 -1691 0
1690 -1691 0
1691 1692 0
-1691 -1692 0
-1660 -1689 1693 0
1660 -1693 0
1689 -1693 0
1693 1694 0
-1693 -1694 0
-1692 -1694 1695 0
1692 -1695 0
1694 -1695 0
-1671 -1695 1696 0
1671 -1696 0
1695 -1696 0
-1658 -1688 1697 0
1658 -1697 0
1688 -1697 0
1697 1698 0
-1697 -1698 0
-1673 -1698 1699 0
1673 -1699 0
1698 -1699 0
1699 1700 0
-1699 -1700 0
-1659 -1697 1701 0
1659 -1701 0
1697 -1701 0
1701 1702 0
-1701 -1702 0
-1700 -1702 1703 0
1700 -1703 0
1702 -1703 0
-1671 -1703 1704 0
1671 -1704 0
1703 -1704 0
-1674 -1687 1705 0
1674 -1705 0
1687 -1705 0
1705 1706 0
-1705 -1706 0
-1698 -1706 1707 0
1698 -1707 0
1706 -1707 0
-1671 -1707 1708 0
1671 -1708 0
1707 -1708 0
-1673 -1674 1709 0
1673 -1709 0
1674 -1709 0
-1672 -1709 1710 0
1672 -1710 0
1709 -1710 0
1710 1711 0
-1710 -1711 0
-1688 -1711 1712 0
1688 -1712 0
1711 -1712 0
1712 1713 0
-1712 -1713 0
-1682 -1646 1714 0
1682 -1714 0
1646 -1714 0
1714 1715 0
-1714 -1715 0
-1678 -1714 1716 0
1678 -1716 0
1714 -1716 0
1716 1717 0
-1716 -1717 0
-1682 -1647 1718 0
1682 -1718 0
1647 -1718 0
1718 1719 0
-1718 -1719 0
-1655 -1719 1720 0
1655 -1720 0
1719 -1720 0
1720 1721 0
-1720 -1721 0
-1716 -1721 1722 0
1716 -1722 0
1721 -1722 0
1722 1723 0
-1722 -1723 0
-1677 -1718 1724 0
1677 -1724 0
1718 -1724 0
1724 1725 0
-1724 -1725 0
-1723 -1725 1726 0
1723 -1726 0
1725 -1726 0
1726 1727 0
-1726 -1727 0
-1682 -1648 1728 0
1682 -1728 0
1648 -1728 0
1728 1729 0
-1728 -1729 0
-1656 -1729 1730 0
1656 -1730 0
1729 -1730 0
1730 1731 0
-1730 -1731 0
-1727 -1731 1732 0
1727 -1732 0
1731 -1732 0
1732 1733 0
-1732 -1733 0
-1676 -1728 1734 0
1676 -1734 0
1728 -1734 0
1734 1735 0
-1734 -1735 0
-1733 -1735 1736 0
1733 -1736 0
1735 -1736 0
1736 1737 0
-1736 -1737 0
-1682 -1649 1738 0
1682 -1738 0
1649 -1738 0
1738 1739 0
-1738 -1739 0
-1657 -1739 1740 0
1657 -1740 0
1739 -1740 0
1740 1741 0
-1740 -1741 0
-1737 -1741 1742 0
1737 -1742 0
1741 -1742 0
1742 1743 0
-1742 -1743 0
-1675 -1738 1744 0
1675 -1744 0
1738 -1744 0
1744 1745 0
-1744 -1745 0
-1743 -1745 1746 0
1743 -1746 0
1745 -1746 0
1746 1747 0
-1746 -1747 0
-1712 -1747 1748 0
1712 -1748 0
1747 -1748 0
1748 1749 0
-1748 -1749 0
-1675 -1713 1750 0
1675 -1750 0
1713 -1750 0
1750 1751 0
-1750 -1751 0
-1749 -1751 1752 0
1749 -1752 0
1751 -1752 0
1752 1753 0
-1752 -1753 0
-1671 -1753 1754 0
1671 -1754 0
1753 -1754 0
1754 1755 0
-1754 -1755 0
-1737 -1738 1756 0
1737 -1756 0
1738 -1756 0
-1675 -1756 1757 0
1675 -1757 0
1756 -1757 0
1757 1758 0
-1757 -1758 0
-1736 -1739 1759 0
1736 -1759 0
1739 -1759 0
-1657 -1759 1760 0
1657 -1760 0
1759 -1760 0
1760 1761 0
-1760 -1761 0
-1746 -1761 1762 0
1746 -1762 0
1761 -1762 0
1762 1763 0
-1762 -1763 0
-1758 -1763 1764 0
1758 -1764 0
1763 -1764 0
1764 1765 0
-1764 -1765 0
-1712 -1765 1766 0
1712 -1766 0
1765 -1766 0
1766 1767 0
-1766 -1767 0
-1676 -1713 1768 0
1676 -1768 0
1713 -1768 0
1768 1769 0
-1768 -1769 0
-1767 -1769 1770 0
1767 -1770 0
1769 -1770 0
1770 1771 0
-1770 -1771 0
-1671 -1771 1772 0
1671 -1772 0
1771 -1772 0
1772 1773 0
-1772 -1773 0
-1727 -1728 1774 0
1727 -1774 0
1728 -1774 0
-1676 -1774 1775 0
1676 -1775 0
1774 -1775 0
1775 1776 0
-1775 -1776 0
-1726 -1729 1777 0
1726 -1777 0
1729 -1777 0
-1656 -1777 1778 0
1656 -1778 0
1777 -1778 0
1778 1779 0
-1778 -1779 0
-1736 -1779 1780 0
1736 -1780 0
1779 -1780 0
1780 1781 0
-1780 -1781 0
-1776 -1781 1782 0
1776 -1782 0
1781 -1782 0
1782 1783 0
-1782 -1783 0
-1712 -1783 1784 0
1712 -1784 0
1783 -1784 0
1784 1785 0
-1784 -1785 0
-1677 -1713 1786 0
1677 -1786 0
1713 -1786 0
1786 1787 0
-1786 -1787 0
-1785 -1787 1788 0
1785 -1788 0
1787 -1788 0
1788 1789 0
-1788 -1789 0
-1671 -1789 1790 0
1671 -1790 0
1789 -1790 0
1790 1791 0
-1790 -1791 0
-1716 -1718 1792 0
1716 -1792 0
1718 -1792 0
-1677 -1792 1793 0
1677 -1793 0
1792 -1793 0
1793 1794 0
-1793 -1794 0
-1717 -1719 1795 0
1717 -1795 0
1719 -1795 0
-1655 -1795 1796 0
1655 -1796 0
1795 -1796 0
1796 1797 0
-1796 -1797 0
-1726 -1797 1798 0
1726 -1798 0
1797 -1798 0
1798 1799 0
-1798 -1799 0
-1794 -1799 1800 0
1794 -1800 0
1799 -1800 0
1800 1801 0
-1800 -1801 0
-1712 -1801 1802 0
1712 -1802 0
1801 -1802 0
1802 1803 0
-1802 -1803 0
-1678 -1713 1804 0
1678 -1804 0
1713 -1804 0
1804 1805 0
-1804 -1805 0
-1803 -1805 1806 0
1803 -1806 0
1805 -1806 0
1806 1807 0
-1806 -1807 0
-1671 -1807 1808 0
1671 -1808 0
1807 -1808 0
1808 1809 0
-1808 -1809 0
-1666 -1688 1810 0
1666 -1810 0
1688 -1810 0
1810 1811 0
-1810 -1811 0
-1679 -1687 1812 0
1679 -1812 0
1687 -1812 0
1812 1813 0
-1812 -1813 0
-1811 -1813 1814 0
1811 -1814 0
1813 -1814 0
1814 1815 0
-1814 -1815 0
-1713 -1815 1816 0
1713 -1816 0
1815 -1816 0
1816 1817 0
-1816 -1817 0
-1654 -1715 1818 0
1654 -1818 0
1715 -1818 0
1818 1819 0
-1818 -1819 0
-1717 -1819 1820 0
1717 -1820 0
1819 -1820 0
-1712 -1820 1821 0
1712 -1821 0
1820 -1821 0
1821 1822 0
-1821 -1822 0
-1817 -1822 1823 0
1817 -1823 0
1822 -1823 0
-1665 -1688 1824 0
1665 -1824 0
1688 -1824 0
1824 1825 0
-1824 -1825 0
-1680 -1687 1826 0
1680 -1826 0
1687 -1826 0
1826 1827 0
-1826 -1827 0
-1825 -1827 1828 0
1825 -1828 0
1827 -1828 0
1828 1829 0
-1828 -1829 0
-1713 -1829 1830 0
1713 -1830 0
1829 -1830 0
1830 1831 0
-1830 -1831 0
-1679 -1712 1832 0
1679 -1832 0
1712 -1832 0
1832 1833 0
-1832 -1833 0
-1831 -1833 1834 0
1831 -1834 0
1833 -1834 0
-1664 -1688 1835 0
1664 -1835 0
1688 -1835 0
1835 1836 0
-1835 -1836 0
-1681 -1687 1837 0
1681 -1837 0
1687 -1837 0
1837 1838 0
-1837 -1838 0
-1836 -1838 1839 0
1836 -1839 0
1838 -1839 0
1839 1840 0
-1839 -1840 0
-1713 -1840 1841 0
1713 -1841 0
1840 -1841 0
1841 1842 0
-1841 -1842 0
-1680 -1712 1843 0
1680 -1843 0
1712 -1843 0
1843 1844 0
-1843 -1844 0
-1842 -1844 1845 0
1842 -1845 0
1844 -1845 0
-1663 -1688 1846 0
1663 -1846 0
1688 -1846 0
1846 1847 0
-1846 -1847 0
-1682 -1687 1848 0
1682 -1848 0
1687 -1848 0
1848 1849 0
-1848 -1849 0
-1847 -1849 1850 0
1847 -1850 0
1849 -1850 0
1850 1851 0
-1850 -1851 0
-1713 -1851 1852 0
1713 -1852 0
1851 -1852 0
1852 1853 0
-1852 -1853 0
-1681 -1712 1854 0
1681 -1854 0
1712 -1854 0
1854 1855 0
-1854 -1855 0
-1853 -1855 1856 0
1853 -1856 0
1855 -1856 0
-1670 -1710 1857 0
1670 -1857 0
1710 -1857 0
1857 1858 0
-1857 -1858 0
-1649 -1711 1859 0
1649 -1859 0
1711 -1859 0
1859 1860 0
-1859 -1860 0
-1858 -1860 1861 0
1858 -1861 0
1860 -1861 0
1861 1862 0
-1861 -1862 0
-1669 -1710 1863 0
1669 -1863 0
1710 -1863 0
1863 1864 0
-1863 -1864 0
-1648 -1711 1865 0
1648 -1865 0
1711 -1865 0
1865 1866 0
-1865 -1866 0
-1864 -1866 1867 0
1864 -1867 0
1866 -1867 0
1867 1868 0
-1867 -1868 0
-1668 -1710 1869 0
1668 -1869 0
1710 -1869 0
1869 1870 0
-1869 -1870 0
-1647 -1711 1871 0
1647 -1871 0
1711 -1871 0
1871 1872 0
-1871 -1872 0
-1870 -1872 1873 0
1870 -1873 0
1872 -1873 0
1873 1874 0
-1873 -1874 0
-1667 -1710 1875 0
1667 -1875 0
1710 -1875 0
1875 1876 0
-1875 -1876 0
-1646 -1711 1877 0
1646 -1877 0
1711 -1877 0
1877 1878 0
-1877 -1878 0
-1876 -1878 1879 0
1876 -1879 0
1878 -1879 0
1879 1880 0
-1879 -1880 0
-1881 1880 0
1881 -1880 0
-1882 1874 0
1882 -1874 0
-1883 1868 0
1883 -1868 0
-1884 1862 0
1884 -1862 0
-1885 1856 0
1885 -1856 0
-1886 1845 0
1886 -1845 0
-1887 1823 0
1887 -1823 0
-1888 1834 0
1888 -1834 0
-1889 1809 0
1889 -1809 0
-1890 1791 0
1890 -1791 0
-1891 1773 0
1891 -1773 0
-1892 1755 0
1892 -1755 0
-1893 1708 0
1893 -1708 0
-1894 1704 0
1894 -1704 0
-1895 1696 0
1895 -1696 0
1897 1906 0
-1897 -1906 0
1895 1907 0
-1895 -1907 0
1894 1908 0
-1894 -1908 0
1893 1909 0
-1893 -1909 0
1892 1910 0
-1892 -1910 0
1891 1911 0
-1891 -1911 0
1890 1912 0
-1890 -1912 0
1889 1913 0
-1889 -1913 0
1888 1914 0
-1888 -1914 0
1887 1915 0
-1887 -1915 0
1886 1916 0
-1886 -1916 0
1885 1917 0
-1885 -1917 0
-1894 -1893 1918 0
1894 -1918 0
1893 -1918 0
-1895 -1918 1919 0
1895 -1919 0
1918 -1919 0
1919 1920 0
-1919 -1920 0
-1908 -1893 1921 0
1908 -1921 0
1893 -1921 0
-1895 -1921 1922 0
1895 -1922 0
1921 -1922 0
1922 1923 0
-1922 -1923 0
-1918 -1923 1924 0
1918 -1924 0
1923 -1924 0
1924 1925 0
-1924 -1925 0
-1907 -1925 1926 0
1907 -1926 0
1925 -1926 0
1926 1927 0
-1926 -1927 0
-1895 -1924 1928 0
1895 -1928 0
1924 -1928 0
1928 1929 0
-1928 -1929 0
-1927 -1929 1930 0
1927 -1930 0
1929 -1930 0
-1906 -1930 1931 0
1906 -1931 0
1930 -1931 0
-1893 -1923 1932 0
1893 -1932 0
1923 -1932 0
1932 1933 0
-1932 -1933 0
-1908 -1933 1934 0
1908 -1934 0
1933 -1934 0
1934 1935 0
-1934 -1935 0
-1894 -1932 1936 0
1894 -1936 0
1932 -1936 0
1936 1937 0
-1936 -1937 0
-1935 -1937 1938 0
1935 -1938 0
1937 -1938 0
-1906 -1938 1939 0
1906 -1939 0
1938 -1939 0
-1909 -1922 1940 0
1909 -1940 0
1922 -1940 0
1940 1941 0
-1940 -1941 0
-1933 -1941 1942 0
1933 -1942 0
1941 -1942 0
-1906 -1942 1943 0
1906 -1943 0
1942 -1943 0
-1908 -1909 1944 0
1908 -1944 0
1909 -1944 0
-1907 -1944 1945 0
1907 -1945 0
1944 -1945 0
1945 1946 0
-1945 -1946 0
-1923 -1946 1947 0
1923 -1947 0
1946 -1947 0
1947 1948 0
-1947 -1948 0
-1917 -1881 1949 0
1917 -1949 0
1881 -1949 0
1949 1950 0
-1949 -1950 0
-1913 -1949 1951 0
1913 -1951 0
1949 -1951 0
1951 1952 0
-1951 -1952 0
-1917 -1882 1953 0
1917 -1953 0
1882 -1953 0
1953 1954 0
-1953 -1954 0
-1890 -1954 1955 0
1890 -1955 0
1954 -1955 0
1955 1956 0
-1955 -1956 0
-1951 -1956 1957 0
1951 -1957 0
1956 -1957 0
1957 1958 0
-1957 -1958 0
-1912 -1953 1959 0
1912 -1959 0
1953 -1959 0
1959 1960 0
-1959 -1960 0
-1958 -1960 1961 0
1958 -1961 0
1960 -1961 0
1961 1962 0
-1961 -1962 0
-1917 -1883 1963 0
1917 -1963 0
1883 -1963 0
1963 1964 0
-1963 -1964 0
-1891 -1964 1965 0
1891 -1965 0
1964 -1965 0
1965 1966 0
-1965 -1966 0
-1962 -1966 1967 0
1962 -1967 0
1966 -1967 0
1967 1968 0
-1967 -1968 0
-1911 -1963 1969 0
1911 -1969 0
1963 -1969 0
1969 1970 0
-1969 -1970 0
-1968 -1970 1971 0
1968 -1971 0
1970 -1971 0
1971 1972 0
-1971 -1972 0
-1917 -1884 1973 0
1917 -1973 0
1884 -1973 0
1973 1974 0
-1973 -1974 0
-1892 -1974 1975 0
1892 -1975 0
1974 -1975 0
1975 1976 0
-1975 -1976 0
-1972 -1976 1977 0
1972 -1977 0
1976 -1977 0
1977 1978 0
-1977 -1978 0
-1910 -1973 1979 0
1910 -1979 0
1973 -1979 0
1979 1980 0
-1979 -1980 0
-1978 -1980 1981 0
1978 -1981 0
1980 -1981 0
1981 1982 0
-1981 -1982 0
-1947 -1982 1983 0
1947 -1983 0
1982 -1983 0
1983 1984 0
-1983 -1984 0
-1910 -1948 1985 0
1910 -1985 0
1948 -1985 0
1985 1986 0
-1985 -1986 0
-1984 -1986 1987 0
1984 -1987 0
1986 -1987 0
1987 1988 0
-1987 -1988 0
-1906 -1988 1989 0
1906 -1989 0
1988 -1989 0
1989 1990 0
-1989 -1990 0
-1972 -1973 1991 0
1972 -1991 0
1973 -1991 0
-1910 -1991 1992 0
1910 -1992 0
1991 -1992 0
1992 1993 0
-1992 -1993 0
-1971 -1974 1994 0
1971 -1994 0
1974 -1994 0
-1892 -1994 1995 0
1892 -1995 0
1994 -1995 0
1995 1996 0
-1995 -1996 0
-1981 -1996 1997 0
1981 -1997 0
1996 -1997 0
1997 1998 0
-1997 -1998 0
-1993 -1998 1999 0
1993 -1999 0
1998 -1999 0
1999 2000 0
-1999 -2000 0
-1947 -2000 2001 0
1947 -2001 0
2000 -2001 0
2001 2002 0
-2001 -2002 0
-1911 -1948 2003 0
1911 -2003 0
1948 -2003 0
2003 2004 0
-2003 -2004 0
-2002 -2004 2005 0
2002 -2005 0
2004 -2005 0
2005 2006 0
-2005 -2006 0
-1906 -2006 2007 0
1906 -2007 0
2006 -2007 0
2007 2008 0
-2007 -2008 0
-1962 -1963 2009 0
1962 -2009 0
1963 -2009 0
-1911 -2009 2010 0
1911 -2010 0
2009 -2010 0
2010 2011 0
-2010 -2011 0
-1961 -1964 2012 0
1961 -2012 0
1964 -2012 0
-1891 -2012 2013 0
1891 -2013 0
2012 -2013 0
2013 2014 0
-2013 -2014 0
-1971 -2014 2015 0
1971 -2015 0
2014 -2015 0
2015 2016 0
-2015 -2016 0
-2011 -2016 2017 0
2011 -2017 0
2016 -2017 0
2017 2018 0
-2017 -2018 0
-1947 -2018 2019 0
1947 -2019 0
2018 -2019 0
2019 2020 0
-2019 -2020 0
-1912 -1948 2021 0
1912 -2021 0
1948 -2021 0
2021 2022 0
-2021 -2022 0
-2020 -2022 2023 0
2020 -2023 0
2022 -2023 0
2023 2024 0
-2023 -2024 0
-1906 -2024 2025 0
1906 -2025 0
2024 -2025 0
2025 2026 0
-2025 -2026 0
-1951 -1953 2027 0
1951 -2027 0
1953 -2027 0
-1912 -2027 2028 0
1912 -2028 0
2027 -2028 0
2028 2029 0
-2028 -2029 0
-1952 -1954 2030 0
1952 -2030 0
1954 -2030 0
-1890 -2030 2031 0
1890 -2031 0
2030 -2031 0
2031 2032 0
-2031 -2032 0
-1961 -2032 2033 0
1961 -2033 0
2032 -2033 0
2033 2034 0
-2033 -2034 0
-2029 -2034 2035 0
2029 -2035 0
2034 -2035 0
2035 2036 0
-2035 -2036 0
-1947 -2036 2037 0
1947 -2037 0
2036 -2037 0
2037 2038 0
-2037 -2038 0
-1913 -1948 2039 0
1913 -2039 0
1948 -2039 0
2039 2040 0
-2039 -2040 0
-2038 -2040 2041 0
2038 -2041 0
2040 -2041 0
2041 2042 0
-2041 -2042 0
-1906 -2042 2043 0
1906 -2043 0
2042 -2043 0
2043 2044 0
-2043 -2044 0
-1901 -1923 2045 0
1901 -2045 0
1923 -2045 0
2045 2046 0
-2045 -2046 0
-1914 -1922 2047 0
1914 -2047 0
1922 -2047 0
2047 2048 0
-2047 -2048 0
-2046 -2048 2049 0
2046 -2049 0
2048 -2049 0
2049 2050 0
-2049 -2050 0
-1948 -2050 2051 0
1948 -2051 0
2050 -2051 0
2051 2052 0
-2051 -2052 0
-1889 -1950 2053 0
1889 -2053 0
1950 -2053 0
2053 2054 0
-2053 -2054 0
-1952 -2054 2055 0
1952 -2055 0
2054 -2055 0
-1947 -2055 2056 0
1947 -2056 0
2055 -2056 0
2056 2057 0
-2056 -2057 0
-2052 -2057 2058 0
2052 -2058 0
2057 -2058 0
-1900 -1923 2059 0
1900 -2059 0
1923 -2059 0
2059 2060 0
-2059 -2060 0
-1915 -1922 2061 0
1915 -2061 0
1922 -2061 0
2061 2062 0
-2061 -2062 0
-2060 -2062 2063 0
2060 -2063 0
2062 -2063 0
2063 2064 0
-2063 -2064 0
-1948 -2064 2065 0
1948 -2065 0
2064 -2065 0
2065 2066 0
-2065 -2066 0
-1914 -1947 2067 0
1914 -2067 0
1947 -2067 0
2067 2068 0
-2067 -2068 0
-2066 -2068 2069 0
2066 -2069 0
2068 -2069 0
-1899 -1923 2070 0
1899 -2070 0
1923 -2070 0
2070 2071 0
-2070 -2071 0
-1916 -1922 2072 0
1916 -2072 0
1922 -2072 0
2072 2073 0
-2072 -2073 0
-2071 -2073 2074 0
2071 -2074 0
2073 -2074 0
2074 2075 0
-2074 -2075 0
-1948 -2075 2076 0
1948 -2076 0
2075 -2076 0
2076 2077 0
-2076 -2077 0
-1915 -1947 2078 0
1915 -2078 0
1947 -2078 0
2078 2079 0
-2078 -2079 0
-2077 -2079 2080 0
2077 -2080 0
2079 -2080 0
-1898 -1923 2081 0
1898 -2081 0
1923 -2081 0
2081 2082 0
-2081 -2082 0
-1917 -1922 2083 0
1917 -2083 0
1922 -2083 0
2083 2084 0
-2083 -2084 0
-2082 -2084 2085 0
2082 -2085 0
2084 -2085 0
2085 2086 0
-2085 -2086 0
-1948 -2086 2087 0
1948 -2087 0
2086 -2087 0
2087 2088 0
-2087 -2088 0
-1916 -1947 2089 0
1916 -2089 0
1947 -2089 0
2089 2090 0
-2089 -2090 0
-2088 -2090 2091 0
2088 -2091 0
2090 -2091 0
-1905 -1945 2092 0
1905 -2092 0
1945 -2092 0
2092 2093 0
-2092 -2093 0
-1884 -1946 2094 0
1884 -2094 0
1946 -2094 0
2094 2095 0
-2094 -2095 0
-2093 -2095 2096 0
2093 -2096 0
2095 -2096 0
2096 2097 0
-2096 -2097 0
-1904 -1945 2098 0
1904 -2098 0
1945 -2098 0
2098 2099 0
-2098 -2099 0
-1883 -1946 2100 0
1883 -2100 0
1946 -2100 0
2100 2101 0
-2100 -2101 0
-2099 -2101 2102 0
2099 -2102 0
2101 -2102 0
2102 2103 0
-2102 -2103 0
-1903 -1945 2104 0
1903 -2104 0
1945 -2104 0
2104 2105 0
-2104 -2105 0
-1882 -1946 2106 0
1882 -2106 0
1946 -2106 0
2106 2107 0
-2106 -2107 0
-2105 -2107 2108 0
2105 -2108 0
2107 -2108 0
2108 2109 0
-2108 -2109 0
-1902 -1945 2110 0
1902 -2110 0
1945 -2110 0
2110 2111 0
-2110 -2111 0
-1881 -1946 2112 0
1881 -2112 0
1946 -2112 0
2112 2113 0
-2112 -2113 0
-2111 -2113 2114 0
2111 -2114 0
2113 -2114 0
2114 2115 0
-2114 -2115 0
-2116 2115 0
2116 -2115 0
-2117 2109 0
2117 -2109 0
-2118 2103 0
2118 -2103 0
-2119 2097 0
2119 -2097 0
-2120 2091 0
2120 -2091 0
-2121 2080 0
2121 -2080 0
-2122 2058 0
2122 -2058 0
-2123 2069 0
2123 -2069 0
-2124 2044 0
2124 -2044 0
-2125 2026 0
2125 -2026 0
-2126 2008 0
2126 -2008 0
-2127 1990 0
2127 -1990 0
-2128 1943 0
2128 -1943 0
-2129 1939 0
2129 -1939 0
-2130 1931 0
2130 -1931 0
2132 2141 0
-2132 -2141 0
2130 2142 0
-2130 -2142 0
2129 2143 0
-2129 -2143 0
2128 2144 0
-2128 -2144 0
2127 2145 0
-2127 -2145 0
2126 2146 0
-2126 -2146 0
2125 2147 0
-2125 -2147 0
2124 2148 0
-2124 -2148 0
2123 2149 0
-2123 -2149 0
2122 2150 0
-2122 -2150 0
2121 2151 0
-2121 -2151 0
2120 2152 0
-2120 -2152 0
-2129 -2128 2153 0
2129 -2153 0
2128 -2153 0
-2130 -2153 2154 0
2130 -2154 0
2153 -2154 0
2154 2155 0
-2154 -2155 0
-2143 -2128 2156 0
2143 -2156 0
2128 -2156 0
-2130 -2156 2157 0
2130 -2157 0
2156 -2157 0
2157 2158 0
-2157 -2158 0
-2153 -2158 2159 0
2153 -2159 0
2158 -2159 0
2159 2160 0
-2159 -2160 0
-2142 -2160 2161 0
2142 -2161 0
2160 -2161 0
2161 2162 0
-2161 -2162 0
-2130 -2159 2163 0
2130 -2163 0
2159 -2163 0
2163 2164 0
-2163 -2164 0
-2162 -2164 2165 0
2162 -2165 0
2164 -2165 0
-2141 -2165 2166 0
2141 -2166 0
2165 -2166 0
-2128 -2158 2167 0
2128 -2167 0
2158 -2167 0
2167 2168 0
-2167 -2168 0
-2143 -2168 2169 0
2143 -2169 0
2168 -2169 0
2169 2170 0
-2169 -2170 0
-2129 -2167 2171 0
2129 -2171 0
2167 -2171 0
2171 2172 0
-2171 -2172 0
-2170 -2172 2173 0
2170 -2173 0
2172 -2173 0
-2141 -2173 2174 0
2141 -2174 0
2173 -2174 0
-2144 -2157 2175 0
2144 -2175 0
2157 -2175 0
2175 2176 0
-2175 -2176 0
-2168 -2176 2177 0
2168 -2177 0
2176 -2177 0
-2141 -2177 2178 0
2141 -2178 0
2177 -2178 0
-2143 -2144 2179 0
2143 -2179 0
2144 -2179 0
-2142 -2179 2180 0
2142 -2180 0
2179 -2180 0
2180 2181 0
-2180 -2181 0
-2158 -2181 2182 0
2158 -2182 0
2181 -2182 0
2182 2183 0
-2182 -2183 0
-2152 -2116 2184 0
2152 -2184 0
2116 -2184 0
2184 2185 0
-2184 -2185 0
-2148 -2184 2186 0
2148 -2186 0
2184 -2186 0
2186 2187 0
-2186 -2187 0
-2152 -2117 2188 0
2152 -2188 0
2117 -2188 0
2188 2189 0
-2188 -2189 0
-2125 -2189 2190 0
2125 -2190 0
2189 -2190 0
2190 2191 0
-2190 -2191 0
-2186 -2191 2192 0
2186 -2192 0
2191 -2192 0
2192 2193 0
-2192 -2193 0
-2147 -2188 2194 0
2147 -2194 0
2188 -2194 0
2194 2195 0
-2194 -2195 0
-2193 -2195 2196 0
2193 -2196 0
2195 -2196 0
2196 2197 0
-2196 -2197 0
-2152 -2118 2198 0
2152 -2198 0
2118 -2198 0
2198 2199 0
-2198 -2199 0
-2126 -2199 2200 0
2126 -2200 0
2199 -2200 0
2200 2201 0
-2200 -2201 0
-2197 -2201 2202 0
2197 -2202 0
2201 -2202 0
2202 2203 0
-2202 -2203 0
-2146 -2198 2204 0
2146 -2204 0
2198 -2204 0
2204 2205 0
-2204 -2205 0
-2203 -2205 2206 0
2203 -2206 0
2205 -2206 0
2206 2207 0
-2206 -2207 0
-2152 -2119 2208 0
2152 -2208 0
2119 -2208 0
2208 2209 0
-2208 -2209 0
-2127 -2209 2210 0
2127 -2210 0
2209 -2210 0
2210 2211 0
-2210 -2211 0
-2207 -2211 2212 0
2207 -2212 0
2211 -2212 0
2212 2213 0
-2212 -2213 0
-2145 -2208 2214 0
2145 -2214 0
2208 -2214 0
2214 2215 0
-2214 -2215 0
-2213 -2215 2216 0
2213 -2216 0
2215 -2216 0
2216 2217 0
-2216 -2217 0
-2182 -2217 2218 0
2182 -2218 0
2217 -2218 0
2218 2219 0
-2218 -2219 0
-2145 -2183 2220 0
2145 -2220 0
2183 -2220 0
2220 2221 0
-2220 -2221 0
-2219 -2221 2222 0
2219 -2222 0
2221 -2222 0
2222 2223 0
-2222 -2223 0
-2141 -2223 2224 0
2141 -2224 0
2223 -2224 0
2224 2225 0
-2224 -2225 0
-2207 -2208 2226 0
2207 -2226 0
2208 -2226 0
-2145 -2226 2227 0
2145 -2227 0
2226 -2227 0
2227 2228 0
-2227 -2228 0
-2206 -2209 2229 0
2206 -2229 0
2209 -2229 0
-2127 -2229 2230 0
2127 -2230 0
2229 -2230 0
2230 2231 0
-2230 -2231 0
-2216 -2231 2232 0
2216 -2232 0
2231 -2232 0
2232 2233 0
-2232 -2233 0
-2228 -2233 2234 0
2228 -2234 0
2233 -2234 0
2234 2235 0
-2234 -2235 0
-2182 -2235 2236 0
2182 -2236 0
2235 -2236 0
2236 2237 0
-2236 -2237 0
-2146 -2183 2238 0
2146 -2238 0
2183 -2238 0
2238 2239 0
-2238 -2239 0
-2237 -2239 2240 0
2237 -2240 0
2239 -2240 0
2240 2241 0
-2240 -2241 0
-2141 -2241 2242 0
2141 -2242 0
2241 -2242 0
2242 2243 0
-2242 -2243 0
-2197 -2198 2244 0
2197 -2244 0
2198 -2244 0
-2146 -2244 2245 0
2146 -2245 0
2244 -2245 0
2245 2246 0
-2245 -2246 0
-2196 -2199 2247 0
2196 -2247 0
2199 -2247 0
-2126 -2247 2248 0
2126 -2248 0
2247 -2248 0
2248 2249 0
-2248 -2249 0
-2206 -2249 2250 0
2206 -2250 0
2249 -2250 0
2250 2251 0
-2250 -2251 0
-2246 -2251 2252 0
2246 -2252 0
2251 -2252 0
2252 2253 0
-2252 -2253 0
-2182 -2253 2254 0
2182 -2254 0
2253 -2254 0
2254 2255 0
-2254 -2255 0
-2147 -2183 2256 0
2147 -2256 0
2183 -2256 0
2256 2257 0
-2256 -2257 0
-2255 -2257 2258 0
2255 -2258 0
2257 -2258 0
2258 2259 0
-2258 -2259 0
-2141 -2259 2260 0
2141 -2260 0
2259 -2260 0
2260 2261 0
-2260 -2261 0
-2186 -2188 2262 0
2186 -2262 0
2188 -2262 0
-2147 -2262 2263 0
2147 -2263 0
2262 -2263 0
2263 2264 0
-2263 -2264 0
-2187 -2189 2265 0
2187 -2265 0
2189 -2265 0
-2125 -2265 2266 0
2125 -2266 0
2265 -2266 0
2266 2267 0
-2266 -2267 0
-2196 -2267 2268 0
2196 -2268 0
2267 -2268 0
2268 2269 0
-2268 -2269 0
-2264 -2269 2270 0
2264 -2270 0
2269 -2270 0
2270 2271 0
-2270 -2271 0
-2182 -2271 2272 0
2182 -2272 0
2271 -2272 0
2272 2273 0
-2272 -2273 0
-2148 -2183 2274 0
2148 -2274 0
2183 -2274 0
2274 2275 0
-2274 -2275 0
-2273 -2275 2276 0
2273 -2276 0
2275 -2276 0
2276 2277 0
-2276 -2277 0
-2141 -2277 2278 0
2141 -2278 0
2277 -2278 0
2278 2279 0
-2278 -2279 0
-2136 -2158 2280 0
2136 -2280 0
2158 -2280 0
2280 2281 0
-2280 -2281 0
-2149 -2157 2282 0
2149 -2282 0
2157 -2282 0
2282 2283 0
-2282 -2283 0
-2281 -2283 2284 0
2281 -2284 0
2283 -2284 0
2284 2285 0
-2284 -2285 0
-2183 -2285 2286 0
2183 -2286 0
2285 -2286 0
2286 2287 0
-2286 -2287 0
-2124 -2185 2288 0
2124 -2288 0
2185 -2288 0
2288 2289 0
-2288 -2289 0
-2187 -2289 2290 0
2187 -2290 0
2289 -2290 0
-2182 -2290 2291 0
2182 -2291 0
2290 -2291 0
2291 2292 0
-2291 -2292 0
-2287 -2292 2293 0
2287 -2293 0
2292 -2293 0
-2135 -2158 2294 0
2135 -2294 0
2158 -2294 0
2294 2295 0
-2294 -2295 0
-2150 -2157 2296 0
2150 -2296 0
2157 -2296 0
2296 2297 0
-2296 -2297 0
-2295 -2297 2298 0
2295 -2298 0
2297 -2298 0
2298 2299 0
-2298 -2299 0
-2183 -2299 2300 0
2183 -2300 0
2299 -2300 0
2300 2301 0
-2300 -2301 0
-2149 -2182 2302 0
2149 -2302 0
2182 -2302 0
2302 2303 0
-2302 -2303 0
-2301 -2303 2304 0
2301 -2304 0
2303 -2304 0
-2134 -2158 2305 0
2134 -2305 0
2158 -2305 0
2305 2306 0
-2305 -2306 0
-2151 -2157 2307 0
2151 -2307 0
2157 -2307 0
2307 2308 0
-2307 -2308 0
-2306 -2308 2309 0
2306 -2309 0
2308 -2309 0
2309 2310 0
-2309 -2310 0
-2183 -2310 2311 0
2183 -2311 0
2310 -2311 0
2311 2312 0
-2311 -2312 0
-2150 -2182 2313 0
2150 -2313 0
2182 -2313 0
2313 2314 0
-2313 -2314 0
-2312 -2314 2315 0
2312 -2315 0
2314 -2315 0
-2133 -2158 2316 0
2133 -2316 0
2158 -2316 0
2316 2317 0
-2316 -2317 0
-2152 -2157 2318 0
2152 -2318 0
2157 -2318 0
2318 2319 0
-2318 -2319 0
-2317 -2319 2320 0
2317 -2320 0
2319 -2320 0
2320 2321 0
-2320 -2321 0
-2183 -2321 2322 0
2183 -2322 0
2321 -2322 0
2322 2323 0
-2322 -2323 0
-2151 -2182 2324 0
2151 -2324 0
2182 -2324 0
2324 2325 0
-2324 -2325 0
-2323 -2325 2326 0
2323 -2326 0
2325 -2326 0
-2140 -2180 2327 0
2140 -2327 0
2180 -2327 0
2327 2328 0
-2327 -2328 0
-2119 -2181 2329 0
2119 -2329 0
2181 -2329 0
2329 2330 0
-2329 -2330 0
-2328 -2330 2331 0
2328 -2331 0
2330 -2331 0
2331 2332 0
-2331 -2332 0
-2139 -2180 2333 0
2139 -2333 0
2180 -2333 0
2333 2334 0
-2333 -2334 0
-2118 -2181 2335 0
2118 -2335 0
2181 -2335 0
2335 2336 0
-2335 -2336 0
-2334 -2336 2337 0
2334 -2337 0
2336 -2337 0
2337 2338 0
-2337 -2338 0
-2138 -2180 2339 0
2138 -2339 0
2180 -2339 0
2339 2340 0
-2339 -2340 0
-2117 -2181 2341 0
2117 -2341 0
2181 -2341 0
2341 2342 0
-2341 -2342 0
-2340 -2342 2343 0
2340 -2343 0
2342 -2343 0
2343 2344 0
-2343 -2344 0
-2137 -2180 2345 0
2137 -2345 0
2180 -2345 0
2345 2346 0
-2345 -2346 0
-2116 -2181 2347 0
2116 -2347 0
2181 -2347 0
2347 2348 0
-2347 -2348 0
-2346 -2348 2349 0
2346 -2349 0
2348 -2349 0
2349 2350 0
-2349 -2350 0
-2351 2350 0
2351 -2350 0
-2352 2344 0
2352 -2344 0
-2353 2338 0
2353 -2338 0
-2354 2332 0
2354 -2332 0
-2355 2326 0
2355 -2326 0
-2356 2315 0
2356 -2315 0
-2357 2293 0
2357 -2293 0
-2358 2304 0
2358 -2304 0
-2359 2279 0
2359 -2279 0
-2360 2261 0
2360 -2261 0
-2361 2243 0
2361 -2243 0
-2362 2225 0
2362 -2225 0
-2363 2178 0
2363 -2178 0
-2364 2174 0
2364 -2174 0
-2365 2166 0
2365 -2166 0
2367 2376 0
-2367 -2376 0
2365 2377 0
-2365 -2377 0
2364 2378 0
-2364 -2378 0
2363 2379 0
-2363 -2379 0
2362 2380 0
-2362 -2380 0
2361 2381 0
-2361 -2381 0
2360 2382 0
-2360 -2382 0
2359 2383 0
-2359 -2383 0
2358 2384 0
-2358 -2384 0
2357 2385 0
-2357 -2385 0
2356 2386 0
-2356 -2386 0
2355 2387 0
-2355 -2387 0
-2364 -2363 2388 0
2364 -2388 0
2363 -2388 0
-2365 -2388 2389 0
2365 -2389 0
2388 -2389 0
2389 2390 0
-2389 -2390 0
-2378 -2363 2391 0
2378 -2391 0
2363 -2391 0
-2365 -2391 2392 0
2365 -2392 0
2391 -2392 0
2392 2393 0
-2392 -2393 0
-2388 -2393 2394 0
2388 -2394 0
2393 -2394 0
2394 2395 0
-2394 -2395 0
-2377 -2395 2396 0
2377 -2396 0
2395 -2396 0
2396 2397 0
-2396 -2397 0
-2365 -2394 2398 0
2365 -2398 0
2394 -2398 0
2398 2399 0
-2398 -2399 0
-2397 -2399 2400 0
2397 -2400 0
2399 -2400 0
-2376 -2400 2401 0
2376 -2401 0
2400 -2401 0
-2363 -2393 2402 0
2363 -2402 0
2393 -2402 0
2402 2403 0
-2402 -2403 0
-2378 -2403 2404 0
2378 -2404 0
2403 -2404 0
2404 2405 0
-2404 -2405 0
-2364 -2402 2406 0
2364 -2406 0
2402 -2406 0
2406 2407 0
-2406 -2407 0
-2405 -2407 2408 0
2405 -2408 0
2407 -2408 0
-2376 -2408 2409 0
2376 -2409 0
2408 -2409 0
-2379 -2392 2410 0
2379 -2410 0
2392 -2410 0
2410 2411 0
-2410 -2411 0
-2403 -2411 2412 0
2403 -2412 0
2411 -2412 0
-2376 -2412 2413 0
2376 -2413 0
2412 -2413 0
-2378 -2379 2414 0
2378 -2414 0
2379 -2414 0
-2377 -2414 2415 0
2377 -2415 0
2414 -2415 0
2415 2416 0
-2415 -2416 0
-2393 -2416 2417 0
2393 -2417 0
2416 -2417 0
2417 2418 0
-2417 -2418 0
-2387 -2351 2419 0
2387 -2419 0
2351 -2419 0
2419 2420 0
-2419 -2420 0
-2383 -2419 2421 0
2383 -2421 0
2419 -2421 0
2421 2422 0
-2421 -2422 0
-2387 -2352 2423 0
2387 -2423 0
2352 -2423 0
2423 2424 0
-2423 -2424 0
-2360 -2424 2425 0
2360 -2425 0
2424 -2425 0
2425 2426 0
-2425 -2426 0
-2421 -2426 2427 0
2421 -2427 0
2426 -2427 0
2427 2428 0
-2427 -2428 0
-2382 -2423 2429 0
2382 -2429 0
2423 -2429 0
2429 2430 0
-2429 -2430 0
-2428 -2430 2431 0
2428 -2431 0
2430 -2431 0
2431 2432 0
-2431 -2432 0
-2387 -2353 2433 0
2387 -2433 0
2353 -2433 0
2433 2434 0
-2433 -2434 0
-2361 -2434 2435 0
2361 -2435 0
2434 -2435 0
2435 2436 0
-2435 -2436 0
-2432 -2436 2437 0
2432 -2437 0
2436 -2437 0
2437 2438 0
-2437 -2438 0
-2381 -2433 2439 0
2381 -2439 0
2433 -2439 0
2439 2440 0
-2439 -2440 0
-2438 -2440 2441 0
2438 -2441 0
2440 -2441 0
2441 2442 0
-2441 -2442 0
-2387 -2354 2443 0
2387 -2443 0
2354 -2443 0
2443 2444 0
-2443 -2444 0
-2362 -2444 2445 0
2362 -2445 0
2444 -2445 0
2445 2446 0
-2445 -2446 0
-2442 -2446 2447 0
2442 -2447 0
2446 -2447 0
2447 2448 0
-2447 -2448 0
-2380 -2443 2449 0
2380 -2449 0
2443 -2449 0
2449 2450 0
-2449 -2450 0
-2448 -2450 2451 0
2448 -2451 0
2450 -2451 0
2451 2452 0
-2451 -2452 0
-2417 -2452 2453 0
2417 -2453 0
2452 -2453 0
2453 2454 0
-2453 -2454 0
-2380 -2418 2455 0
2380 -2455 0
2418 -2455 0
2455 2456 0
-2455 -2456 0
-2454 -2456 2457 0
2454 -2457 0
2456 -2457 0
2457 2458 0
-2457 -2458 0
-2376 -2458 2459 0
2376 -2459 0
2458 -2459 0
2459 2460 0
-2459 -2460 0
-2442 -2443 2461 0
2442 -2461 0
2443 -2461 0
-2380 -2461 2462 0
2380 -2462 0
2461 -2462 0
2462 2463 0
-2462 -2463 0
-2441 -2444 2464 0
2441 -2464 0
2444 -2464 0
-2362 -2464 2465 0
2362 -2465 0
2464 -2465 0
2465 2466 0
-2465 -2466 0
-2451 -2466 2467 0
2451 -2467 0
2466 -2467 0
2467 2468 0
-2467 -2468 0
-2463 -2468 2469 0
2463 -2469 0
2468 -2469 0
2469 2470 0
-2469 -2470 0
-2417 -2470 2471 0
2417 -2471 0
2470 -2471 0
2471 2472 0
-2471 -2472 0
-2381 -2418 2473 0
2381 -2473 0
2418 -2473 0
2473 2474 0
-2473 -2474 0
-2472 -2474 2475 0
2472 -2475 0
2474 -2475 0
2475 2476 0
-2475 -2476 0
-2376 -2476 2477 0
2376 -2477 0
2476 -2477 0
2477 2478 0
-2477 -2478 0
-2432 -2433 2479 0
2432 -2479 0
2433 -2479 0
-2381 -2479 2480 0
2381 -2480 0
2479 -2480 0
2480 2481 0
-2480 -2481 0
-2431 -2434 2482 0
2431 -2482 0
2434 -2482 0
-2361 -2482 2483 0
2361 -2483 0
2482 -2483 0
2483 2484 0
-2483 -2484 0
-2441 -2484 2485 0
2441 -2485 0
2484 -2485 0
2485 2486 0
-2485 -2486 0
-2481 -2486 2487 0
2481 -2487 0
2486 -2487 0
2487 2488 0
-2487 -2488 0
-2417 -2488 2489 0
2417 -2489 0
2488 -2489 0
2489 2490 0
-2489 -2490 0
-2382 -2418 2491 0
2382 -2491 0
2418 -2491 0
2491 2492 0
-2491 -2492 0
-2490 -2492 2493 0
2490 -2493 0
2492 -2493 0
2493 2494 0
-2493 -2494 0
-2376 -2494 2495 0
2376 -2495 0
2494 -2495 0
2495 2496 0
-2495 -2496 0
-2421 -2423 2497 0
2421 -2497 0
2423 -2497 0
-2382 -2497 2498 0
2382 -2498 0
2497 -2498 0
2498 2499 0
-2498 -2499 0
-2422 -2424 2500 0
2422 -2500 0
2424 -2500 0
-2360 -2500 2501 0
2360 -2501 0
2500 -2501 0
2501 2502 0
-2501 -2502 0
-2431 -2502 2503 0
2431 -2503 0
2502 -2503 0
2503 2504 0
-2503 -2504 0
-2499 -2504 2505 0
2499 -2505 0
2504 -2505 0
2505 2506 0
-2505 -2506 0
-2417 -2506 2507 0
2417 -2507 0
2506 -2507 0
2507 2508 0
-2507 -2508 0
-2383 -2418 2509 0
2383 -2509 0
2418 -2509 0
2509 2510 0
-2509 -2510 0
-2508 -2510 2511 0
2508 -2511 0
2510 -2511 0
2511 2512 0
-2511 -2512 0
-2376 -2512 2513 0
2376 -2513 0
2512 -2513 0
2513 2514 0
-2513 -2514 0
-2371 -2393 2515 0
2371 -2515 0
2393 -2515 0
2515 2516 0
-2515 -2516 0
-2384 -2392 2517 0
2384 -2517 0
2392 -2517 0
2517 2518 0
-2517 -2518 0
-2516 -2518 2519 0
2516 -2519 0
2518 -2519 0
2519 2520 0
-2519 -2520 0
-2418 -2520 2521 0
2418 -2521 0
2520 -2521 0
2521 2522 0
-2521 -2522 0
-2359 -2420 2523 0
2359 -2523 0
2420 -2523 0
2523 2524 0
-2523 -2524 0
-2422 -2524 2525 0
2422 -2525 0
2524 -2525 0
-2417 -2525 2526 0
2417 -2526 0
2525 -2526 0
2526 2527 0
-2526 -2527 0
-2522 -2527 2528 0
2522 -2528 0
2527 -2528 0
-2370 -2393 2529 0
2370 -2529 0
2393 -2529 0
2529 2530 0
-2529 -2530 0
-2385 -2392 2531 0
2385 -2531 0
2392 -2531 0
2531 2532 0
-2531 -2532 0
-2530 -2532 2533 0
2530 -2533 0
2532 -2533 0
2533 2534 0
-2533 -2534 0
-2418 -2534 2535 0
2418 -2535 0
2534 -2535 0
2535 2536 0
-2535 -2536 0
-2384 -2417 2537 0
2384 -2537 0
2417 -2537 0
2537 2538 0
-2537 -2538 0
-2536 -2538 2539 0
2536 -2539 0
2538 -2539 0
-2369 -2393 2540 0
2369 -2540 0
2393 -2540 0
2540 2541 0
-2540 -2541 0
-2386 -2392 2542 0
2386 -2542 0
2392 -2542 0
2542 2543 0
-2542 -2543 0
-2541 -2543 2544 0
2541 -2544 0
2543 -2544 0
2544 2545 0
-2544 -2545 0
-2418 -2545 2546 0
2418 -2546 0
2545 -2546 0
2546 2547 0
-2546 -2547 0
-2385 -2417 2548 0
2385 -2548 0
2417 -2548 0
2548 2549 0
-2548 -2549 0
-2547 -2549 2550 0
2547 -2550 0
2549 -2550 0
-2368 -2393 2551 0
2368 -2551 0
2393 -2551 0
2551 2552 0
-2551 -2552 0
-2387 -2392 2553 0
2387 -2553 0
2392 -2553 0
2553 2554 0
-2553 -2554 0
-2552 -2554 2555 0
2552 -2555 0
2554 -2555 0
2555 2556 0
-2555 -2556 0
-2418 -2556 2557 0
2418 -2557 0
2556 -2557 0
2557 2558 0
-2557 -2558 0
-2386 -2417 2559 0
2386 -2559 0
2417 -2559 0
2559 2560 0
-2559 -2560 0
-2558 -2560 2561 0
2558 -2561 0
2560 -2561 0
-2375 -2415 2562 0
2375 -2562 0
2415 -2562 0
2562 2563 0
-2562 -2563 0
-2354 -2416 2564 0
2354 -2564 0
2416 -2564 0
2564 2565 0
-2564 -2565 0
-2563 -2565 2566 0
2563 -2566 0
2565 -2566 0
2566 2567 0
-2566 -2567 0
-2374 -2415 2568 0
2374 -2568 0
2415 -2568 0
2568 2569 0
-2568 -2569 0
-2353 -2416 2570 0
2353 -2570 0
2416 -2570 0
2570 2571 0
-2570 -2571 0
-2569 -2571 2572 0
2569 -2572 0
2571 -2572 0
2572 2573 0
-2572 -2573 0
-2373 -2415 2574 0
2373 -2574 0
2415 -2574 0
2574 2575 0
-2574 -2575 0
-2352 -2416 2576 0
2352 -2576 0
2416 -2576 0
2576 2577 0
-2576 -2577 0
-2575 -2577 2578 0
2575 -2578 0
2577 -2578 0
2578 2579 0
-2578 -2579 0
-2372 -2415 2580 0
2372 -2580 0
2415 -2580 0
2580 2581 0
-2580 -2581 0
-2351 -2416 2582 0
2351 -2582 0
2416 -2582 0
2582 2583 0
-2582 -2583 0
-2581 -2583 2584 0
2581 -2584 0
2583 -2584 0
2584 2585 0
-2584 -2585 0
-2586 2585 0
2586 -2585 0
-2587 2579 0
2587 -2579 0
-2588 2573 0
2588 -2573 0
-2589 2567 0
2589 -2567 0
-2590 2561 0
2590 -2561 0
-2591 2550 0
2591 -2550 0
-2592 2528 0
2592 -2528 0
-2593 2539 0
2593 -2539 0
-2594 2514 0
2594 -2514 0
-2595 2496 0
2595 -2496 0
-2596 2478 0
2596 -2478 0
-2597 2460 0
2597 -2460 0
-2598 2413 0
2598 -2413 0
-2599 2409 0
2599 -2409 0
-2600 2401 0
2600 -2401 0
2602 2611 0
-2602 -2611 0
2600 2612 0
-2600 -2612 0
2599 2613 0
-2599 -2613 0
2598 2614 0
-2598 -2614 0
2597 2615 0
-2597 -2615 0
2596 2616 0
-2596 -2616 0
2595 2617 0
-2595 -2617 0
2594 2618 0
-2594 -2618 0
2593 2619 0
-2593 -2619 0
2592 2620 0
-2592 -2620 0
2591 2621 0
-2591 -2621 0
2590 2622 0
-2590 -2622 0
-2599 -2598 2623 0
2599 -2623 0
2598 -2623 0
-2600 -2623 2624 0
2600 -2624 0
2623 -2624 0
2624 2625 0
-2624 -2625 0
-2613 -2598 2626 0
2613 -2626 0
2598 -2626 0
-2600 -2626 2627 0
2600 -2627 0
2626 -2627 0
2627 2628 0
-2627 -2628 0
-2623 -2628 2629 0
2623 -2629 0
2628 -2629 0
2629 2630 0
-2629 -2630 0
-2612 -2630 2631 0
2612 -2631 0
2630 -2631 0
2631 2632 0
-2631 -2632 0
-2600 -2629 2633 0
2600 -2633 0
2629 -2633 0
2633 2634 0
-2633 -2634 0
-2632 -2634 2635 0
2632 -2635 0
2634 -2635 0
-2611 -2635 2636 0
2611 -2636 0
2635 -2636 0
-2598 -2628 2637 0
2598 -2637 0
2628 -2637 0
2637 2638 0
-2637 -2638 0
-2613 -2638 2639 0
2613 -2639 0
2638 -2639 0
2639 2640 0
-2639 -2640 0
-2599 -2637 2641 0
2599 -2641 0
2637 -2641 0
2641 2642 0
-2641 -2642 0
-2640 -2642 2643 0
2640 -2643 0
2642 -2643 0
-2611 -2643 2644 0
2611 -2644 0
2643 -2644 0
-2614 -2627 2645 0
2614 -2645 0
2627 -2645 0
2645 2646 0
-2645 -2646 0
-2638 -2646 2647 0
2638 -2647 0
2646 -2647 0
-2611 -2647 2648 0
2611 -2648 0
2647 -2648 0
-2613 -2614 2649 0
2613 -2649 0
2614 -2649 0
-2612 -2649 2650 0
2612 -2650 0
2649 -2650 0
2650 2651 0
-2650 -2651 0
-2628 -2651 2652 0
2628 -2652 0
2651 -2652 0
2652 2653 0
-2652 -2653 0
-2622 -2586 2654 0
2622 -2654 0
2586 -2654 0
2654 2655 0
-2654 -2655 0
-2618 -2654 2656 0
2618 -2656 0
2654 -2656 0
2656 2657 0
-2656 -2657 0
-2622 -2587 2658 0
2622 -2658 0
2587 -2658 0
2658 2659 0
-2658 -2659 0
-2595 -2659 2660 0
2595 -2660 0
2659 -2660 0
2660 2661 0
-2660 -2661 0
-2656 -2661 2662 0
2656 -2662 0
2661 -2662 0
2662 2663 0
-2662 -2663 0
-2617 -2658 2664 0
2617 -2664 0
2658 -2664 0
2664 2665 0
-2664 -2665 0
-2663 -2665 2666 0
2663 -2666 0
2665 -2666 0
2666 2667 0
-2666 -2667 0
-2622 -2588 2668 0
2622 -2668 0
2588 -2668 0
2668 2669 0
-2668 -2669 0
-2596 -2669 2670 0
2596 -2670 0
2669 -2670 0
2670 2671 0
-2670 -2671 0
-2667 -2671 2672 0
2667 -2672 0
2671 -2672 0
2672 2673 0
-2672 -2673 0
-2616 -2668 2674 0
2616 -2674 0
2668 -2674 0
2674 2675 0
-2674 -2675 0
-2673 -2675 2676 0
2673 -2676 0
2675 -2676 0
2676 2677 0
-2676 -2677 0
-2622 -2589 2678 0
2622 -2678 0
2589 -2678 0
2678 2679 0
-2678 -2679 0
-2597 -2679 2680 0
2597 -2680 0
2679 -2680 0
2680 2681 0
-2680 -2681 0
-2677 -2681 2682 0
2677 -2682 0
2681 -2682 0
2682 2683 0
-2682 -2683 0
-2615 -2678 2684 0
2615 -2684 0
2678 -2684 0
2684 2685 0
-2684 -2685 0
-2683 -2685 2686 0
2683 -2686 0
2685 -2686 0
2686 2687 0
-2686 -2687 0
-2652 -2687 2688 0
2652 -2688 0
2687 -2688 0
2688 2689 0
-2688 -2689 0
-2615 -2653 2690 0
2615 -2690 0
2653 -2690 0
2690 2691 0
-2690 -2691 0
-2689 -2691 2692 0
2689 -2692 0
2691 -2692 0
2692 2693 0
-2692 -2693 0
-2611 -2693 2694 0
2611 -2694 0
2693 -2694 0
2694 2695 0
-2694 -2695 0
-2677 -2678 2696 0
2677 -2696 0
2678 -2696 0
-2615 -2696 2697 0
2615 -2697 0
2696 -2697 0
2697 2698 0
-2697 -2698 0
-2676 -2679 2699 0
2676 -2699 0
2679 -2699 0
-2597 -2699 2700 0
2597 -2700 0
2699 -2700 0
2700 2701 0
-2700 -2701 0
-2686 -2701 2702 0
2686 -2702 0
2701 -2702 0
2702 2703 0
-2702 -2703 0
-2698 -2703 2704 0
2698 -2704 0
2703 -2704 0
2704 2705 0
-2704 -2705 0
-2652 -2705 2706 0
2652 -2706 0
2705 -2706 0
2706 2707 0
-2706 -2707 0
-2616 -2653 2708 0
2616 -2708 0
2653 -2708 0
2708 2709 0
-2708 -2709 0
-2707 -2709 2710 0
2707 -2710 0
2709 -2710 0
2710 2711 0
-2710 -2711 0
-2611 -2711 2712 0
2611 -2712 0
2711 -2712 0
2712 2713 0
-2712 -2713 0
-2667 -2668 2714 0
2667 -2714 0
2668 -2714 0
-2616 -2714 2715 0
2616 -2715 0
2714 -2715 0
2715 2716 0
-2715 -2716 0
-2666 -2669 2717 0
2666 -2717 0
2669 -2717 0
-2596 -2717 2718 0
2596 -2718 0
2717 -2718 0
2718 2719 0
-2718 -2719 0
-2676 -2719 2720 0
2676 -2720 0
2719 -2720 0
2720 2721 0
-2720 -2721 0
-2716 -2721 2722 0
2716 -2722 0
2721 -2722 0
2722 2723 0
-2722 -2723 0
-2652 -2723 2724 0
2652 -2724 0
2723 -2724 0
2724 2725 0
-2724 -2725 0
-2617 -2653 2726 0
2617 -2726 0
2653 -2726 0
2726 2727 0
-2726 -2727 0
-2725 -2727 2728 0
2725 -2728 0
2727 -2728 0
2728 2729 0
-2728 -2729 0
-2611 -2729 2730 0
2611 -2730 0
2729 -2730 0
2730 2731 0
-2730 -2731 0
-2656 -2658 2732 0
2656 -2732 0
2658 -2732 0
-2617 -2732 2733 0
2617 -2733 0
2732 -2733 0
2733 2734 0
-2733 -2734 0
-2657 -2659 2735 0
2657 -2735 0
2659 -2735 0
-2595 -2735 2736 0
2595 -2736 0
2735 -2736 0
2736 2737 0
-2736 -2737 0
-2666 -2737 2738 0
2666 -2738 0
2737 -2738 0
2738 2739 0
-2738 -2739 0
-2734 -2739 2740 0
2734 -2740 0
2739 -2740 0
2740 2741 0
-2740 -2741 0
-2652 -2741 2742 0
2652 -2742 0
2741 -2742 0
2742 2743 0
-2742 -2743 0
-2618 -2653 2744 0
2618 -2744 0
2653 -2744 0
2744 2745 0
-2744 -2745 0
-2743 -2745 2746 0
2743 -2746 0
2745 -2746 0
2746 2747 0
-2746 -2747 0
-2611 -2747 2748 0
2611 -2748 0
2747 -2748 0
2748 2749 0
-2748 -2749 0
-2606 -2628 2750 0
2606 -2750 0
2628 -2750 0
2750 2751 0
-2750 -2751 0
-2619 -2627 2752 0
2619 -2752 0
2627 -2752 0
2752 2753 0
-2752 -2753 0
-2751 -2753 2754 0
2751 -2754 0
2753 -2754 0
2754 2755 0
-2754 -2755 0
-2653 -2755 2756 0
2653 -2756 0
2755 -2756 0
2756 2757 0
-2756 -2757 0
-2594 -2655 2758 0
2594 -2758 0
2655 -2758 0
2758 2759 0
-2758 -2759 0
-2657 -2759 2760 0
2657 -2760 0
2759 -2760 0
-2652 -2760 2761 0
2652 -2761 0
2760 -2761 0
2761 2762 0
-2761 -2762 0
-2757 -2762 2763 0
2757 -2763 0
2762 -2763 0
-2605 -2628 2764 0
2605 -2764 0
2628 -2764 0
2764 2765 0
-2764 -2765 0
-2620 -2627 2766 0
2620 -2766 0
2627 -2766 0
2766 2767 0
-2766 -2767 0
-2765 -2767 2768 0
2765 -2768 0
2767 -2768 0
2768 2769 0
-2768 -2769 0
-2653 -2769 2770 0
2653 -2770 0
2769 -2770 0
2770 2771 0
-2770 -2771 0
-2619 -2652 2772 0
2619 -2772 0
2652 -2772 0
2772 2773 0
-2772 -2773 0
-2771 -2773 2774 0
2771 -2774 0
2773 -2774 0
-2604 -2628 2775 0
2604 -2775 0
2628 -2775 0
2775 2776 0
-2775 -2776 0
-2621 -2627 2777 0
2621 -2777 0
2627 -2777 0
2777 2778 0
-2777 -2778 0
-2776 -2778 2779 0
2776 -2779 0
2778 -2779 0
2779 2780 0
-2779 -2780 0
-2653 -2780 2781 0
2653 -2781 0
2780 -2781 0
2781 2782 0
-2781 -2782 0
-2620 -2652 2783 0
2620 -2783 0
2652 -2783 0
2783 2784 0
-2783 -2784 0
-2782 -2784 2785 0
2782 -2785 0
2784 -2785 0
-2603 -2628 2786 0
2603 -2786 0
2628 -2786 0
2786 2787 0
-2786 -2787 0
-2622 -2627 2788 0
2622 -2788 0
2627 -2788 0
2788 2789 0
-2788 -2789 0
-2787 -2789 2790 0
2787 -2790 0
2789 -2790 0
2790 2791 0
-2790 -2791 0
-2653 -2791 2792 0
2653 -2792 0
2791 -2792 0
2792 2793 0
-2792 -2793 0
-2621 -2652 2794 0
2621 -2794 0
2652 -2794 0
2794 2795 0
-2794 -2795 0
-2793 -2795 2796 0
2793 -2796 0
2795 -2796 0
-2610 -2650 2797 0
2610 -2797 0
2650 -2797 0
2797 2798 0
-2797 -2798 0
-2589 -2651 2799 0
2589 -2799 0
2651 -2799 0
2799 2800 0
-2799 -2800 0
-2798 -2800 2801 0
2798 -2801 0
2800 -2801 0
2801 2802 0
-2801 -2802 0
-2609 -2650 2803 0
2609 -2803 0
2650 -2803 0
2803 2804 0
-2803 -2804 0
-2588 -2651 2805 0
2588 -2805 0
2651 -2805 0
2805 2806 0
-2805 -2806 0
-2804 -2806 2807 0
2804 -2807 0
2806 -2807 0
2807 2808 0
-2807 -2808 0
-2608 -2650 2809 0
2608 -2809 0
2650 -2809 0
2809 2810 0
-2809 -2810 0
-2587 -2651 2811 0
2587 -2811 0
2651 -2811 0
2811 2812 0
-2811 -2812 0
-2810 -2812 2813 0
2810 -2813 0
2812 -2813 0
2813 2814 0
-2813 -2814 0
-2607 -2650 2815 0
2607 -2815 0
2650 -2815 0
2815 2816 0
-2815 -2816 0
-2586 -2651 2817 0
2586 -2817 0
2651 -2817 0
2817 2818 0
-2817 -2818 0
-2816 -2818 2819 0
2816 -2819 0
2818 -2819 0
2819 2820 0
-2819 -2820 0
-2821 2820 0
2821 -2820 0
-2822 2814 0
2822 -2814 0
-2823 2808 0
2823 -2808 0
-2824 2802 0
2824 -2802 0
-2825 2796 0
2825 -2796 0
-2826 2785 0
2826 -2785 0
-2827 2763 0
2827 -2763 0
-2828 2774 0
2828 -2774 0
-2829 2749 0
2829 -2749 0
-2830 2731 0
2830 -2731 0
-2831 2713 0
2831 -2713 0
-2832 2695 0
2832 -2695 0
-2833 2648 0
2833 -2648 0
-2834 2644 0
2834 -2644 0
-2835 2636 0
2835 -2636 0
2837 2846 0
-2837 -2846 0
2835 2847 0
-2835 -2847 0
2834 2848 0
-2834 -2848 0
2833 2849 0
-2833 -2849 0
2832 2850 0
-2832 -2850 0
2831 2851 0
-2831 -2851 0
2830 2852 0
-2830 -2852 0
2829 2853 0
-2829 -2853 0
2828 2854 0
-2828 -2854 0
2827 2855 0
-2827 -2855 0
2826 2856 0
-2826 -2856 0
2825 2857 0
-2825 -2857 0
-2834 -2833 2858 0
2834 -2858 0
2833 -2858 0
-2835 -2858 2859 0
2835 -2859 0
2858 -2859 0
2859 2860 0
-2859 -2860 0
-2848 -2833 2861 0
2848 -2861 0
2833 -2861 0
-2835 -2861 2862 0
2835 -2862 0
2861 -2862 0
2862 2863 0
-2862 -2863 0
-2858 -2863 2864 0
2858 -2864 0
2863 -2864 0
2864 2865 0
-2864 -2865 0
-2847 -2865 2866 0
2847 -2866 0
2865 -2866 0
2866 2867 0
-2866 -2867 0
-2835 -2864 2868 0
2835 -2868 0
2864 -2868 0
2868 2869 0
-2868 -2869 0
-2867 -2869 2870 0
2867 -2870 0
2869 -2870 0
-2846 -2870 2871 0
2846 -2871 0
2870 -2871 0
-2833 -2863 2872 0
2833 -2872 0
2863 -2872 0
2872 2873 0
-2872 -2873 0
-2848 -2873 2874 0
2848 -2874 0
2873 -2874 0
2874 2875 0
-2874 -2875 0
-2834 -2872 2876 0
2834 -2876 0
2872 -2876 0
2876 2877 0
-2876 -2877 0
-2875 -2877 2878 0
2875 -2878 0
2877 -2878 0
-2846 -2878 2879 0
2846 -2879 0
2878 -2879 0
-2849 -2862 2880 0
2849 -2880 0
2862 -2880 0
2880 2881 0
-2880 -2881 0
-2873 -2881 2882 0
2873 -2882 0
2881 -2882 0
-2846 -2882 2883 0
2846 -2883 0
2882 -2883 0
-2848 -2849 2884 0
2848 -2884 0
2849 -2884 0
-2847 -2884 2885 0
2847 -2885 0
2884 -2885 0
2885 2886 0
-2885 -2886 0
-2863 -2886 2887 0
2863 -2887 0
2886 -2887 0
2887 2888 0
-2887 -2888 0
-2857 -2821 2889 0
2857 -2889 0
2821 -2889 0
2889 2890 0
-2889 -2890 0
-2853 -2889 2891 0
2853 -2891 0
2889 -2891 0
2891 2892 0
-2891 -2892 0
-2857 -2822 2893 0
2857 -2893 0
2822 -2893 0
2893 2894 0
-2893 -2894 0
-2830 -2894 2895 0
2830 -2895 0
2894 -2895 0
2895 2896 0
-2895 -2896 0
-2891 -2896 2897 0
2891 -2897 0
2896 -2897 0
2897 2898 0
-2897 -2898 0
-2852 -2893 2899 0
2852 -2899 0
2893 -2899 0
2899 2900 0
-2899 -2900 0
-2898 -2900 2901 0
2898 -2901 0
2900 -2901 0
2901 2902 0
-2901 -2902 0
-2857 -2823 2903 0
2857 -2903 0
2823 -2903 0
2903 2904 0
-2903 -2904 0
-2831 -2904 2905 0
2831 -2905 0
2904 -2905 0
2905 2906 0
-2905 -2906 0
-2902 -2906 2907 0
2902 -2907 0
2906 -2907 0
2907 2908 0
-2907 -2908 0
-2851 -2903 2909 0
2851 -2909 0
2903 -2909 0
2909 2910 0
-2909 -2910 0
-2908 -2910 2911 0
2908 -2911 0
2910 -2911 0
2911 2912 0
-2911 -2912 0
-2857 -2824 2913 0
2857 -2913 0
2824 -2913 0
2913 2914 0
-2913 -2914 0
-2832 -2914 2915 0
2832 -2915 0
2914 -2915 0
2915 2916 0
-2915 -2916 0
-2912 -2916 2917 0
2912 -2917 0
2916 -2917 0
2917 2918 0
-2917 -2918 0
-2850 -2913 2919 0
2850 -2919 0
2913 -2919 0
2919 2920 0
-2919 -2920 0
-2918 -2920 2921 0
2918 -2921 0
2920 -2921 0
2921 2922 0
-2921 -2922 0
-2887 -2922 2923 0
2887 -2923 0
2922 -2923 0
2923 2924 0
-2923 -2924 0
-2850 -2888 2925 0
2850 -2925 0
2888 -2925 0
2925 2926 0
-2925 -2926 0
-2924 -2926 2927 0
2924 -2927 0
2926 -2927 0
2927 2928 0
-2927 -2928 0
-2846 -2928 2929 0
2846 -2929 0
2928 -2929 0
2929 2930 0
-2929 -2930 0
-2912 -2913 2931 0
2912 -2931 0
2913 -2931 0
-2850 -2931 2932 0
2850 -2932 0
2931 -2932 0
2932 2933 0
-2932 -2933 0
-2911 -2914 2934 0
2911 -2934 0
2914 -2934 0
-2832 -2934 2935 0
2832 -2935 0
2934 -2935 0
2935 2936 0
-2935 -2936 0
-2921 -2936 2937 0
2921 -2937 0
2936 -2937 0
2937 2938 0
-2937 -2938 0
-2933 -2938 2939 0
2933 -2939 0
2938 -2939 0
2939 2940 0
-2939 -2940 0
-2887 -2940 2941 0
2887 -2941 0
2940 -2941 0
2941 2942 0
-2941 -2942 0
-2851 -2888 2943 0
2851 -2943 0
2888 -2943 0
2943 2944 0
-2943 -2944 0
-2942 -2944 2945 0
2942 -2945 0
2944 -2945 0
2945 2946 0
-2945 -2946 0
-2846 -2946 2947 0
2846 -2947 0
2946 -2947 0
2947 2948 0
-2947 -2948 0
-2902 -2903 2949 0
2902 -2949 0
2903 -2949 0
-2851 -2949 2950 0
2851 -2950 0
2949 -2950 0
2950 2951 0
-2950 -2951 0
-2901 -2904 2952 0
2901 -2952 0
2904 -2952 0
-2831 -2952 2953 0
2831 -2953 0
2952 -2953 0
2953 2954 0
-2953 -2954 0
-2911 -2954 2955 0
2911 -2955 0
2954 -2955 0
2955 2956 0
-2955 -2956 0
-2951 -2956 2957 0
2951 -2957 0
2956 -2957 0
2957 2958 0
-2957 -2958 0
-2887 -2958 2959 0
2887 -2959 0
2958 -2959 0
2959 2960 0
-2959 -2960 0
-2852 -2888 2961 0
2852 -2961 0
2888 -2961 0
2961 2962 0
-2961 -2962 0
-2960 -2962 2963 0
2960 -2963 0
2962 -2963 0
2963 2964 0
-2963 -2964 0
-2846 -2964 2965 0
2846 -2965 0
2964 -2965 0
2965 2966 0
-2965 -2966 0
-2891 -2893 2967 0
2891 -2967 0
2893 -2967 0
-2852 -2967 2968 0
2852 -2968 0
2967 -2968 0
2968 2969 0
-2968 -2969 0
-2892 -2894 2970 0
2892 -2970 0
2894 -2970 0
-2830 -2970 2971 0
2830 -2971 0
2970 -2971 0
2971 2972 0
-2971 -2972 0
-2901 -2972 2973 0
2901 -2973 0
2972 -2973 0
2973 2974 0
-2973 -2974 0
-2969 -2974 2975 0
2969 -2975 0
2974 -2975 0
2975 2976 0
-2975 -2976 0
-2887 -2976 2977 0
2887 -2977 0
2976 -2977 0
2977 2978 0
-2977 -2978 0
-2853 -2888 2979 0
2853 -2979 0
2888 -2979 0
2979 2980 0
-2979 -2980 0
-2978 -2980 2981 0
2978 -2981 0
2980 -2981 0
2981 2982 0
-2981 -2982 0
-2846 -2982 2983 0
2846 -2983 0
2982 -2983 0
2983 2984 0
-2983 -2984 0
-2841 -2863 2985 0
2841 -2985 0
2863 -2985 0
2985 2986 0
-2985 -2986 0
-2854 -2862 2987 0
2854 -2987 0
2862 -2987 0
2987 2988 0
-2987 -2988 0
-2986 -2988 2989 0
2986 -2989 0
2988 -2989 0
2989 2990 0
-2989 -2990 0
-2888 -2990 2991 0
2888 -2991 0
2990 -2991 0
2991 2992 0
-2991 -2992 0
-2829 -2890 2993 0
2829 -2993 0
2890 -2993 0
2993 2994 0
-2993 -2994 0
-2892 -2994 2995 0
2892 -2995 0
2994 -2995 0
-2887 -2995 2996 0
2887 -2996 0
2995 -2996 0
2996 2997 0
-2996 -2997 0
-2992 -2997 2998 0
2992 -2998 0
2997 -2998 0
-2840 -2863 2999 0
2840 -2999 0
2863 -2999 0
2999 3000 0
-2999 -3000 0
-2855 -2862 3001 0
2855 -3001 0
2862 -3001 0
3001 3002 0
-3001 -3002 0
-3000 -3002 3003 0
3000 -3003 0
3002 -3003 0
3003 3004 0
-3003 -3004 0
-2888 -3004 3005 0
2888 -3005 0
3004 -3005 0
3005 3006 0
-3005 -3006 0
-2854 -2887 3007 0
2854 -3007 0
2887 -3007 0
3007 3008 0
-3007 -3008 0
-3006 -3008 3009 0
3006 -3009 0
3008 -3009 0
-2839 -2863 3010 0
2839 -3010 0
2863 -3010 0
3010 3011 0
-3010 -3011 0
-2856 -2862 3012 0
2856 -3012 0
2862 -3012 0
3012 3013 0
-3012 -3013 0
-3011 -3013 3014 0
3011 -3014 0
3013 -3014 0
3014 3015 0
-3014 -3015 0
-2888 -3015 3016 0
2888 -3016 0
3015 -3016 0
3016 3017 0
-3016 -3017 0
-2855 -2887 3018 0
2855 -3018 0
2887 -3018 0
3018 3019 0
-3018 -3019 0
-3017 -3019 3020 0
3017 -3020 0
3019 -3020 0
-2838 -2863 3021 0
2838 -3021 0
2863 -3021 0
3021 3022 0
-3021 -3022 0
-2857 -2862 3023 0
2857 -3023 0
2862 -3023 0
3023 3024 0
-3023 -3024 0
-3022 -3024 3025 0
3022 -3025 0
3024 -3025 0
3025 3026 0
-3025 -3026 0
-2888 -3026 3027 0
2888 -3027 0
3026 -3027 0
3027 3028 0
-3027 -3028 0
-2856 -2887 3029 0
2856 -3029 0
2887 -3029 0
3029 3030 0
-3029 -3030 0
-3028 -3030 3031 0
3028 -3031 0
3030 -3031 0
-2845 -2885 3032 0
2845 -3032 0
2885 -3032 0
3032 3033 0
-3032 -3033 0
-2824 -2886 3034 0
2824 -3034 0
2886 -3034 0
3034 3035 0
-3034 -3035 0
-3033 -3035 3036 0
3033 -3036 0
3035 -3036 0
3036 3037 0
-3036 -3037 0
-2844 -2885 3038 0
2844 -3038 0
2885 -3038 0
3038 3039 0
-3038 -3039 0
-2823 -2886 3040 0
2823 -3040 0
2886 -3040 0
3040 3041 0
-3040 -3041 0
-3039 -3041 3042 0
3039 -3042 0
3041 -3042 0
3042 3043 0
-3042 -3043 0
-2843 -2885 3044 0
2843 -3044 0
2885 -3044 0
3044 3045 0
-3044 -3045 0
-2822 -2886 3046 0
2822 -3046 0
2886 -3046 0
3046 3047 0
-3046 -3047 0
-3045 -3047 3048 0
3045 -3048 0
3047 -3048 0
3048 3049 0
-3048 -3049 0
-2842 -2885 3050 0
2842 -3050 0
2885 -3050 0
3050 3051 0
-3050 -3051 0
-2821 -2886 3052 0
2821 -3052 0
2886 -3052 0
3052 3053 0
-3052 -3053 0
-3051 -3053 3054 0
3051 -3054 0
3053 -3054 0
3054 3055 0
-3054 -3055 0
-3056 3055 0
3056 -3055 0
-3057 3049 0
3057 -3049 0
-3058 3043 0
3058 -3043 0
-3059 3037 0
3059 -3037 0
-3060 3031 0
3060 -3031 0
-3061 3020 0
3061 -3020 0
-3062 2998 0
3062 -2998 0
-3063 3009 0
3063 -3009 0
-3064 2984 0
3064 -2984 0
-3065 2966 0
3065 -2966 0
-3066 2948 0
3066 -2948 0
-3067 2930 0
3067 -2930 0
-3068 2883 0
3068 -2883 0
-3069 2879 0
3069 -2879 0
-3070 2871 0
3070 -2871 0
3072 3081 0
-3072 -3081 0
3070 3082 0
-3070 -3082 0
3069 3083 0
-3069 -3083 0
3068 3084 0
-3068 -3084 0
3067 3085 0
-3067 -3085 0
3066 3086 0
-3066 -3086 0
3065 3087 0
-3065 -3087 0
3064 3088 0
-3064 -3088 0
3063 3089 0
-3063 -3089 0
3062 3090 0
-3062 -3090 0
3061 3091 0
-3061 -3091 0
3060 3092 0
-3060 -3092 0
-3069 -3068 3093 0
3069 -3093 0
3068 -3093 0
-3070 -3093 3094 0
3070 -3094 0
3093 -3094 0
3094 3095 0
-3094 -3095 0
-3083 -3068 3096 0
3083 -3096 0
3068 -3096 0
-3070 -3096 3097 0
3070 -3097 0
3096 -3097 0
3097 3098 0
-3097 -3098 0
-3093 -3098 3099 0
3093 -3099 0
3098 -3099 0
3099 3100 0
-3099 -3100 0
-3082 -3100 3101 0
3082 -3101 0
3100 -3101 0
3101 3102 0
-3101 -3102 0
-3070 -3099 3103 0
3070 -3103 0
3099 -3103 0
3103 3104 0
-3103 -3104 0
-3102 -3104 3105 0
3102 -3105 0
3104 -3105 0
-3081 -3105 3106 0
3081 -3106 0
3105 -3106 0
-3068 -3098 3107 0
3068 -3107 0
3098 -3107 0
3107 3108 0
-3107 -3108 0
-3083 -3108 3109 0
3083 -3109 0
3108 -3109 0
3109 3110 0
-3109 -3110 0
-3069 -3107 3111 0
3069 -3111 0
3107 -3111 0
3111 3112 0
-3111 -3112 0
-3110 -3112 3113 0
3110 -3113 0
3112 -3113 0
-3081 -3113 3114 0
3081 -3114 0
3113 -3114 0
-3084 -3097 3115 0
3084 -3115 0
3097 -3115 0
3115 3116 0
-3115 -3116 0
-3108 -3116 3117 0
3108 -3117 0
3116 -3117 0
-3081 -3117 3118 0
3081 -3118 0
3117 -3118 0
-3083 -3084 3119 0
3083 -3119 0
3084 -3119 0
-3082 -3119 3120 0
3082 -3120 0
3119 -3120 0
3120 3121 0
-3120 -3121 0
-3098 -3121 3122 0
3098 -3122 0
3121 -3122 0
3122 3123 0
-3122 -3123 0
-3092 -3056 3124 0
3092 -3124 0
3056 -3124 0
3124 3125 0
-3124 -3125 0
-3088 -3124 3126 0
3088 -3126 0
3124 -3126 0
3126 3127 0
-3126 -3127 0
-3092 -3057 3128 0
3092 -3128 0
3057 -3128 0
3128 3129 0
-3128 -3129 0
-3065 -3129 3130 0
3065 -3130 0
3129 -3130 0
3130 3131 0
-3130 -3131 0
-3126 -3131 3132 0
3126 -3132 0
3131 -3132 0
3132 3133 0
-3132 -3133 0
-3087 -3128 3134 0
3087 -3134 0
3128 -3134 0
3134 3135 0
-3134 -3135 0
-3133 -3135 3136 0
3133 -3136 0
3135 -3136 0
3136 3137 0
-3136 -3137 0
-3092 -3058 3138 0
3092 -3138 0
3058 -3138 0
3138 3139 0
-3138 -3139 0
-3066 -3139 3140 0
3066 -3140 0
3139 -3140 0
3140 3141 0
-3140 -3141 0
-3137 -3141 3142 0
3137 -3142 0
3141 -3142 0
3142 3143 0
-3142 -3143 0
-3086 -3138 3144 0
3086 -3144 0
3138 -3144 0
3144 3145 0
-3144 -3145 0
-3143 -3145 3146 0
3143 -3146 0
3145 -3146 0
3146 3147 0
-3146 -3147 0
-3092 -3059 3148 0
3092 -3148 0
3059 -3148 0
3148 3149 0
-3148 -3149 0
-3067 -3149 3150 0
3067 -3150 0
3149 -3150 0
3150 3151 0
-3150 -3151 0
-3147 -3151 3152 0
3147 -3152 0
3151 -3152 0
3152 3153 0
-3152 -3153 0
-3085 -3148 3154 0
3085 -3154 0
3148 -3154 0
3154 3155 0
-3154 -3155 0
-3153 -3155 3156 0
3153 -3156 0
3155 -3156 0
3156 3157 0
-3156 -3157 0
-3122 -3157 3158 0
3122 -3158 0
3157 -3158 0
3158 3159 0
-3158 -3159 0
-3085 -3123 3160 0
3085 -3160 0
3123 -3160 0
3160 3161 0
-3160 -3161 0
-3159 -3161 3162 0
3159 -3162 0
3161 -3162 0
3162 3163 0
-3162 -3163 0
-3081 -3163 3164 0
3081 -3164 0
3163 -3164 0
3164 3165 0
-3164 -3165 0
-3147 -3148 3166 0
3147 -3166 0
3148 -3166 0
-3085 -3166 3167 0
3085 -3167 0
3166 -3167 0
3167 3168 0
-3167 -3168 0
-3146 -3149 3169 0
3146 -3169 0
3149 -3169 0
-3067 -3169 3170 0
3067 -3170 0
3169 -3170 0
3170 3171 0
-3170 -3171 0
-3156 -3171 3172 0
3156 -3172 0
3171 -3172 0
3172 3173 0
-3172 -3173 0
-3168 -3173 3174 0
3168 -3174 0
3173 -3174 0
3174 3175 0
-3174 -3175 0
-3122 -3175 3176 0
3122 -3176 0
3175 -3176 0
3176 3177 0
-3176 -3177 0
-3086 -3123 3178 0
3086 -3178 0
3123 -3178 0
3178 3179 0
-3178 -3179 0
-3177 -3179 3180 0
3177 -3180 0
3179 -3180 0
3180 3181 0
-3180 -3181 0
-3081 -3181 3182 0
3081 -3182 0
3181 -3182 0
3182 3183 0
-3182 -3183 0
-3137 -3138 3184 0
3137 -3184 0
3138 -3184 0
-3086 -3184 3185 0
3086 -3185 0
3184 -3185 0
3185 3186 0
-3185 -3186 0
-3136 -3139 3187 0
3136 -3187 0
3139 -3187 0
-3066 -3187 3188 0
3066 -3188 0
3187 -3188 0
3188 3189 0
-3188 -3189 0
-3146 -3189 3190 0
3146 -3190 0
3189 -3190 0
3190 3191 0
-3190 -3191 0
-3186 -3191 3192 0
3186 -3192 0
3191 -3192 0
3192 3193 0
-3192 -3193 0
-3122 -3193 3194 0
3122 -3194 0
3193 -3194 0
3194 3195 0
-3194 -3195 0
-3087 -3123 3196 0
3087 -3196 0
3123 -3196 0
3196 3197 0
-3196 -3197 0
-3195 -3197 3198 0
3195 -3198 0
3197 -3198 0
3198 3199 0
-3198 -3199 0
-3081 -3199 3200 0
3081 -3200 0
3199 -3200 0
3200 3201 0
-3200 -3201 0
-3126 -3128 3202 0
3126 -3202 0
3128 -3202 0
-3087 -3202 3203 0
3087 -3203 0
3202 -3203 0
3203 3204 0
-3203 -3204 0
-3127 -3129 3205 0
3127 -3205 0
3129 -3205 0
-3065 -3205 3206 0
3065 -3206 0
3205 -3206 0
3206 3207 0
-3206 -3207 0
-3136 -3207 3208 0
3136 -3208 0
3207 -3208 0
3208 3209 0
-3208 -3209 0
-3204 -3209 3210 0
3204 -3210 0
3209 -3210 0
3210 3211 0
-3210 -3211 0
-3122 -3211 3212 0
3122 -3212 0
3211 -3212 0
3212 3213 0
-3212 -3213 0
-3088 -3123 3214 0
3088 -3214 0
3123 -3214 0
3214 3215 0
-3214 -3215 0
-3213 -3215 3216 0
3213 -3216 0
3215 -3216 0
3216 3217 0
-3216 -3217 0
-3081 -3217 3218 0
3081 -3218 0
3217 -3218 0
3218 3219 0
-3218 -3219 0
-3076 -3098 3220 0
3076 -3220 0
3098 -3220 0
3220 3221 0
-3220 -3221 0
-3089 -3097 3222 0
3089 -3222 0
3097 -3222 0
3222 3223 0
-3222 -3223 0
-3221 -3223 3224 0
3221 -3224 0
3223 -3224 0
3224 3225 0
-3224 -3225 0
-3123 -3225 3226 0
3123 -3226 0
3225 -3226 0
3226 3227 0
-3226 -3227 0
-3064 -3125 3228 0
3064 -3228 0
3125 -3228 0
3228 3229 0
-3228 -3229 0
-3127 -3229 3230 0
3127 -3230 0
3229 -3230 0
-3122 -3230 3231 0
3122 -3231 0
3230 -3231 0
3231 3232 0
-3231 -3232 0
-3227 -3232 3233 0
3227 -3233 0
3232 -3233 0
-3075 -3098 3234 0
3075 -3234 0
3098 -3234 0
3234 3235 0
-3234 -3235 0
-3090 -3097 3236 0
3090 -3236 0
3097 -3236 0
3236 3237 0
-3236 -3237 0
-3235 -3237 3238 0
3235 -3238 0
3237 -3238 0
3238 3239 0
-3238 -3239 0
-3123 -3239 3240 0
3123 -3240 0
3239 -3240 0
3240 3241 0
-3240 -3241 0
-3089 -3122 3242 0
3089 -3242 0
3122 -3242 0
3242 3243 0
-3242 -3243 0
-3241 -3243 3244 0
3241 -3244 0
3243 -3244 0
-3074 -3098 3245 0
3074 -3245 0
3098 -3245 0
3245 3246 0
-3245 -3246 0
-3091 -3097 3247 0
3091 -3247 0
3097 -3247 0
3247 3248 0
-3247 -3248 0
-3246 -3248 3249 0
3246 -3249 0
3248 -3249 0
3249 3250 0
-3249 -3250 0
-3123 -3250 3251 0
3123 -3251 0
3250 -3251 0
3251 3252 0
-3251 -3252 0
-3090 -3122 3253 0
3090 -3253 0
3122 -3253 0
3253 3254 0
-3253 -3254 0
-3252 -3254 3255 0
3252 -3255 0
3254 -3255 0
-3073 -3098 3256 0
3073 -3256 0
3098 -3256 0
3256 3257 0
-3256 -3257 0
-3092 -3097 3258 0
3092 -3258 0
3097 -3258 0
3258 3259 0
-3258 -3259 0
-3257 -3259 3260 0
3257 -3260 0
3259 -3260 0
3260 3261 0
-3260 -3261 0
-3123 -3261 3262 0
3123 -3262 0
3261 -3262 0
3262 3263 0
-3262 -3263 0
-3091 -3122 3264 0
3091 -3264 0
3122 -3264 0
3264 3265 0
-3264 -3265 0
-3263 -3265 3266 0
3263 -3266 0
3265 -3266 0
-3080 -3120 3267 0
3080 -3267 0
3120 -3267 0
3267 3268 0
-3267 -3268 0
-3059 -3121 3269 0
3059 -3269 0
3121 -3269 0
3269 3270 0
-3269 -3270 0
-3268 -3270 3271 0
3268 -3271 0
3270 -3271 0
3271 3272 0
-3271 -3272 0
-3079 -3120 3273 0
3079 -3273 0
3120 -3273 0
3273 3274 0
-3273 -3274 0
-3058 -3121 3275 0
3058 -3275 0
3121 -3275 0
3275 3276 0
-3275 -3276 0
-3274 -3276 3277 0
3274 -3277 0
3276 -3277 0
3277 3278 0
-3277 -3278 0
-3078 -3120 3279 0
3078 -3279 0
3120 -3279 0
3279 3280 0
-3279 -3280 0
-3057 -3121 3281 0
3057 -3281 0
3121 -3281 0
3281 3282 0
-3281 -3282 0
-3280 -3282 3283 0
3280 -3283 0
3282 -3283 0
3283 3284 0
-3283 -3284 0
-3077 -3120 3285 0
3077 -3285 0
3120 -3285 0
3285 3286 0
-3285 -3286 0
-3056 -3121 3287 0
3056 -3287 0
3121 -3287 0
3287 3288 0
-3287 -3288 0
-3286 -3288 3289 0
3286 -3289 0
3288 -3289 0
3289 3290 0
-3289 -3290 0
-3291 3290 0
3291 -3290 0
-3292 3284 0
3292 -3284 0
-3293 3278 0
3293 -3278 0
-3294 3272 0
3294 -3272 0
-3295 3266 0
3295 -3266 0
-3296 3255 0
3296 -3255 0
-3297 3233 0
3297 -3233 0
-3298 3244 0
3298 -3244 0
-3299 3219 0
3299 -3219 0
-3300 3201 0
3300 -3201 0
-3301 3183 0
3301 -3183 0
-3302 3165 0
3302 -3165 0
-3303 3118 0
3303 -3118 0
-3304 3114 0
3304 -3114 0
-3305 3106 0
3305 -3106 0
3307 3316 0
-3307 -3316 0
3305 3317 0
-3305 -3317 0
3304 3318 0
-3304 -3318 0
3303 3319 0
-3303 -3319 0
3302 3320 0
-3302 -3320 0
3301 3321 0
-3301 -3321 0
3300 3322 0
-3300 -3322 0
3299 3323 0
-3299 -3323 0
3298 3324 0
-3298 -3324 0
3297 3325 0
-3297 -3325 0
3296 3326 0
-3296 -3326 0
3295 3327 0
-3295 -3327 0
-3304 -3303 3328 0
3304 -3328 0
3303 -3328 0
-3305 -3328 3329 0
3305 -3329 0
3328 -3329 0
3329 3330 0
-3329 -3330 0
-3318 -3303 3331 0
3318 -3331 0
3303 -3331 0
-3305 -3331 3332 0
3305 -3332 0
3331 -3332 0
3332 3333 0
-3332 -3333 0
-3328 -3333 3334 0
3328 -3334 0
3333 -3334 0
3334 3335 0
-3334 -3335 0
-3317 -3335 3336 0
3317 -3336 0
3335 -3336 0
3336 3337 0
-3336 -3337 0
-3305 -3334 3338 0
3305 -3338 0
3334 -3338 0
3338 3339 0
-3338 -3339 0
-3337 -3339 3340 0
3337 -3340 0
3339 -3340 0
-3316 -3340 3341 0
3316 -3341 0
3340 -3341 0
-3303 -3333 3342 0
3303 -3342 0
3333 -3342 0
3342 3343 0
-3342 -3343 0
-3318 -3343 3344 0
3318 -3344 0
3343 -3344 0
3344 3345 0
-3344 -3345 0
-3304 -3342 3346 0
3304 -3346 0
3342 -3346 0
3346 3347 0
-3346 -3347 0
-3345 -3347 3348 0
3345 -3348 0
3347 -3348 0
-3316 -3348 3349 0
3316 -3349 0
3348 -3349 0
-3319 -3332 3350 0
3319 -3350 0
3332 -3350 0
3350 3351 0
-3350 -3351 0
-3343 -3351 3352 0
3343 -3352 0
3351 -3352 0
-3316 -3352 3353 0
3316 -3353 0
3352 -3353 0
-3318 -3319 3354 0
3318 -3354 0
3319 -3354 0
-3317 -3354 3355 0
3317 -3355 0
3354 -3355 0
3355 3356 0
-3355 -3356 0
-3333 -3356 3357 0
3333 -3357 0
3356 -3357 0
3357 3358 0
-3357 -3358 0
-3327 -3291 3359 0
3327 -3359 0
3291 -3359 0
3359 3360 0
-3359 -3360 0
-3323 -3359 3361 0
3323 -3361 0
3359 -3361 0
3361 3362 0
-3361 -3362 0
-3327 -3292 3363 0
3327 -3363 0
3292 -3363 0
3363 3364 0
-3363 -3364 0
-3300 -3364 3365 0
3300 -3365 0
3364 -3365 0
3365 3366 0
-3365 -3366 0
-3361 -3366 3367 0
3361 -3367 0
3366 -3367 0
3367 3368 0
-3367 -3368 0
-3322 -3363 3369 0
3322 -3369 0
3363 -3369 0
3369 3370 0
-3369 -3370 0
-3368 -3370 3371 0
3368 -3371 0
3370 -3371 0
3371 3372 0
-3371 -3372 0
-3327 -3293 3373 0
3327 -3373 0
3293 -3373 0
3373 3374 0
-3373 -3374 0
-3301 -3374 3375 0
3301 -3375 0
3374 -3375 0
3375 3376 0
-3375 -3376 0
-3372 -3376 3377 0
3372 -3377 0
3376 -3377 0
3377 3378 0
-3377 -3378 0
-3321 -3373 3379 0
3321 -3379 0
3373 -3379 0
3379 3380 0
-3379 -3380 0
-3378 -3380 3381 0
3378 -3381 0
3380 -3381 0
3381 3382 0
-3381 -3382 0
-3327 -3294 3383 0
3327 -3383 0
3294 -3383 0
3383 3384 0
-3383 -3384 0
-3302 -3384 3385 0
3302 -3385 0
3384 -3385 0
3385 3386 0
-3385 -3386 0
-3382 -3386 3387 0
3382 -3387 0
3386 -3387 0
3387 3388 0
-3387 -3388 0
-3320 -3383 3389 0
3320 -3389 0
3383 -3389 0
3389 3390 0
-3389 -3390 0
-3388 -3390 3391 0
3388 -3391 0
3390 -3391 0
3391 3392 0
-3391 -3392 0
-3357 -3392 3393 0
3357 -3393 0
3392 -3393 0
3393 3394 0
-3393 -3394 0
-3320 -3358 3395 0
3320 -3395 0
3358 -3395 0
3395 3396 0
-3395 -3396 0
-3394 -3396 3397 0
3394 -3397 0
3396 -3397 0
3397 3398 0
-3397 -3398 0
-3316 -3398 3399 0
3316 -3399 0
3398 -3399 0
3399 3400 0
-3399 -3400 0
-3382 -3383 3401 0
3382 -3401 0
3383 -3401 0
-3320 -3401 3402 0
3320 -3402 0
3401 -3402 0
3402 3403 0
-3402 -3403 0
-3381 -3384 3404 0
3381 -3404 0
3384 -3404 0
-3302 -3404 3405 0
3302 -3405 0
3404 -3405 0
3405 3406 0
-3405 -3406 0
-3391 -3406 3407 0
3391 -3407 0
3406 -3407 0
3407 3408 0
-3407 -3408 0
-3403 -3408 3409 0
3403 -3409 0
3408 -3409 0
3409 3410 0
-3409 -3410 0
-3357 -3410 3411 0
3357 -3411 0
3410 -3411 0
3411 3412 0
-3411 -3412 0
-3321 -3358 3413 0
3321 -3413 0
3358 -3413 0
3413 3414 0
-3413 -3414 0
-3412 -3414 3415 0
3412 -3415 0
3414 -3415 0
3415 3416 0
-3415 -3416 0
-3316 -3416 3417 0
3316 -3417 0
3416 -3417 0
3417 3418 0
-3417 -3418 0
-3372 -3373 3419 0
3372 -3419 0
3373 -3419 0
-3321 -3419 3420 0
3321 -3420 0
3419 -3420 0
3420 3421 0
-3420 -3421 0
-3371 -3374 3422 0
3371 -3422 0
3374 -3422 0
-3301 -3422 3423 0
3301 -3423 0
3422 -3423 0
3423 3424 0
-3423 -3424 0
-3381 -3424 3425 0
3381 -3425 0
3424 -3425 0
3425 3426 0
-3425 -3426 0
-3421 -3426 3427 0
3421 -3427 0
3426 -3427 0
3427 3428 0
-3427 -3428 0
-3357 -3428 3429 0
3357 -3429 0
3428 -3429 0
3429 3430 0
-3429 -3430 0
-3322 -3358 3431 0
3322 -3431 0
3358 -3431 0
3431 3432 0
-3431 -3432 0
-3430 -3432 3433 0
3430 -3433 0
3432 -3433 0
3433 3434 0
-3433 -3434 0
-3316 -3434 3435 0
3316 -3435 0
3434 -3435 0
3435 3436 0
-3435 -3436 0
-3361 -3363 3437 0
3361 -3437 0
3363 -3437 0
-3322 -3437 3438 0
3322 -3438 0
3437 -3438 0
3438 3439 0
-3438 -3439 0
-3362 -3364 3440 0
3362 -3440 0
3364 -3440 0
-3300 -3440 3441 0
3300 -3441 0
3440 -3441 0
3441 3442 0
-3441 -3442 0
-3371 -3442 3443 0
3371 -3443 0
3442 -3443 0
3443 3444 0
-3443 -3444 0
-3439 -3444 3445 0
3439 -3445 0
3444 -3445 0
3445 3446 0
-3445 -3446 0
-3357 -3446 3447 0
3357 -3447 0
3446 -3447 0
3447 3448 0
-3447 -3448 0
-3323 -3358 3449 0
3323 -3449 0
3358 -3449 0
3449 3450 0
-3449 -3450 0
-3448 -3450 3451 0
3448 -3451 0
3450 -3451 0
3451 3452 0
-3451 -3452 0
-3316 -3452 3453 0
3316 -3453 0
3452 -3453 0
3453 3454 0
-3453 -3454 0
-3311 -3333 3455 0
3311 -3455 0
3333 -3455 0
3455 3456 0
-3455 -3456 0
-3324 -3332 3457 0
3324 -3457 0
3332 -3457 0
3457 3458 0
-3457 -3458 0
-3456 -3458 3459 0
3456 -3459 0
3458 -3459 0
3459 3460 0
-3459 -3460 0
-3358 -3460 3461 0
3358 -3461 0
3460 -3461 0
3461 3462 0
-3461 -3462 0
-3299 -3360 3463 0
3299 -3463 0
3360 -3463 0
3463 3464 0
-3463 -3464 0
-3362 -3464 3465 0
3362 -3465 0
3464 -3465 0
-3357 -3465 3466 0
3357 -3466 0
3465 -3466 0
3466 3467 0
-3466 -3467 0
-3462 -3467 3468 0
3462 -3468 0
3467 -3468 0
-3310 -3333 3469 0
3310 -3469 0
3333 -3469 0
3469 3470 0
-3469 -3470 0
-3325 -3332 3471 0
3325 -3471 0
3332 -3471 0
3471 3472 0
-3471 -3472 0
-3470 -3472 3473 0
3470 -3473 0
3472 -3473 0
3473 3474 0
-3473 -3474 0
-3358 -3474 3475 0
3358 -3475 0
3474 -3475 0
3475 3476 0
-3475 -3476 0
-3324 -3357 3477 0
3324 -3477 0
3357 -3477 0
3477 3478 0
-3477 -3478 0
-3476 -3478 3479 0
3476 -3479 0
3478 -3479 0
-3309 -3333 3480 0
3309 -3480 0
3333 -3480 0
3480 3481 0
-3480 -3481 0
-3326 -3332 3482 0
3326 -3482 0
3332 -3482 0
3482 3483 0
-3482 -3483 0
-3481 -3483 3484 0
3481 -3484 0
3483 -3484 0
3484 3485 0
-3484 -3485 0
-3358 -3485 3486 0
3358 -3486 0
3485 -3486 0
3486 3487 0
-3486 -3487 0
-3325 -3357 3488 0
3325 -3488 0
3357 -3488 0
3488 3489 0
-3488 -3489 0
-3487 -3489 3490 0
3487 -3490 0
3489 -3490 0
-3308 -3333 3491 0
3308 -3491 0
3333 -3491 0
3491 3492 0
-3491 -3492 0
-3327 -3332 3493 0
3327 -3493 0
3332 -3493 0
3493 3494 0
-3493 -3494 0
-3492 -3494 3495 0
3492 -3495 0
3494 -3495 0
3495 3496 0
-3495 -3496 0
-3358 -3496 3497 0
3358 -3497 0
3496 -3497 0
3497 3498 0
-3497 -3498 0
-3326 -3357 3499 0
3326 -3499 0
3357 -3499 0
3499 3500 0
-3499 -3500 0
-3498 -3500 3501 0
3498 -3501 0
3500 -3501 0
-3315 -3355 3502 0
3315 -3502 0
3355 -3502 0
3502 3503 0
-3502 -3503 0
-3294 -3356 3504 0
3294 -3504 0
3356 -3504 0
3504 3505 0
-3504 -3505 0
-3503 -3505 3506 0
3503 -3506 0
3505 -3506 0
3506 3507 0
-3506 -3507 0
-3314 -3355 3508 0
3314 -3508 0
3355 -3508 0
3508 3509 0
-3508 -3509 0
-3293 -3356 3510 0
3293 -3510 0
3356 -3510 0
3510 3511 0
-3510 -3511 0
-3509 -3511 3512 0
3509 -3512 0
3511 -3512 0
3512 3513 0
-3512 -3513 0
-3313 -3355 3514 0
3313 -3514 0
3355 -3514 0
3514 3515 0
-3514 -3515 0
-3292 -3356 3516 0
3292 -3516 0
3356 -3516 0
3516 3517 0
-3516 -3517 0
-3515 -3517 3518 0
3515 -3518 0
3517 -3518 0
3518 3519 0
-3518 -3519 0
-3312 -3355 3520 0
3312 -3520 0
3355 -3520 0
3520 3521 0
-3520 -3521 0
-3291 -3356 3522 0
3291 -3522 0
3356 -3522 0
3522 3523 0
-3522 -3523 0
-3521 -3523 3524 0
3521 -3524 0
3523 -3524 0
3524 3525 0
-3524 -3525 0
-3526 3525 0
3526 -3525 0
-3527 3519 0
3527 -3519 0
-3528 3513 0
3528 -3513 0
-3529 3507 0
3529 -3507 0
-3530 3501 0
3530 -3501 0
-3531 3490 0
3531 -3490 0
-3532 3468 0
3532 -3468 0
-3533 3479 0
3533 -3479 0
-3534 3454 0
3534 -3454 0
-3535 3436 0
3535 -3436 0
-3536 3418 0
3536 -3418 0
-3537 3400 0
3537 -3400 0
-3538 3353 0
3538 -3353 0
-3539 3349 0
3539 -3349 0
-3540 3341 0
3540 -3341 0
3526 0
3527 0
3528 0
3529 0
3530 0
3531 0
3532 0
3533 0
3534 0
3535 0
3536 0
3537 0
3538 0
3539 0
3540 0
-1 0
-2 0
-3 0
-4 0
-5 0
-6 0
-7 0
-8 0
-9 0
-10 0
-11 0
-12 0
-13 0
-14 0
-15 0
