c Reachability CNF generated by lab1_parser_jkhare.cpp
c File: verilog_src/ex5.v
c Unroll k = 2
c Target at time k = (none; base CNF)
p cnf 467 1104
11 20 0
-11 -20 0
9 21 0
-9 -21 0
8 22 0
-8 -22 0
7 23 0
-7 -23 0
6 24 0
-6 -24 0
5 25 0
-5 -25 0
4 26 0
-4 -26 0
3 27 0
-3 -27 0
2 28 0
-2 -28 0
1 29 0
-1 -29 0
4 30 0
-4 -30 0
9 31 0
-9 -31 0
-8 -7 32 0
8 -32 0
7 -32 0
-9 -32 33 0
9 -33 0
32 -33 0
33 34 0
-33 -34 0
-22 -7 35 0
22 -35 0
7 -35 0
-9 -35 36 0
9 -36 0
35 -36 0
36 37 0
-36 -37 0
-32 -37 38 0
32 -38 0
37 -38 0
38 39 0
-38 -39 0
-21 -39 40 0
21 -40 0
39 -40 0
40 41 0
-40 -41 0
-9 -38 42 0
9 -42 0
38 -42 0
42 43 0
-42 -43 0
-41 -43 44 0
41 -44 0
43 -44 0
-20 -44 45 0
20 -45 0
44 -45 0
-7 -37 46 0
7 -46 0
37 -46 0
46 47 0
-46 -47 0
-22 -47 48 0
22 -48 0
47 -48 0
48 49 0
-48 -49 0
-8 -46 50 0
8 -50 0
46 -50 0
50 51 0
-50 -51 0
-49 -51 52 0
49 -52 0
51 -52 0
-20 -52 53 0
20 -53 0
52 -53 0
-23 -36 54 0
23 -54 0
36 -54 0
54 55 0
-54 -55 0
-47 -55 56 0
47 -56 0
55 -56 0
-20 -56 57 0
20 -57 0
56 -57 0
-22 -23 58 0
22 -58 0
23 -58 0
-21 -58 59 0
21 -59 0
58 -59 0
59 60 0
-59 -60 0
-37 -60 61 0
37 -61 0
60 -61 0
61 62 0
-61 -62 0
-31 -5 63 0
31 -63 0
5 -63 0
63 64 0
-63 -64 0
-27 -63 65 0
27 -65 0
63 -65 0
65 66 0
-65 -66 0
-31 -6 67 0
31 -67 0
6 -67 0
67 68 0
-67 -68 0
-4 -68 69 0
4 -69 0
68 -69 0
69 70 0
-69 -70 0
-65 -70 71 0
65 -71 0
70 -71 0
71 72 0
-71 -72 0
-26 -67 73 0
26 -73 0
67 -73 0
73 74 0
-73 -74 0
-72 -74 75 0
72 -75 0
74 -75 0
75 76 0
-75 -76 0
-31 -7 77 0
31 -77 0
7 -77 0
77 78 0
-77 -78 0
-5 -78 79 0
5 -79 0
78 -79 0
79 80 0
-79 -80 0
-76 -80 81 0
76 -81 0
80 -81 0
81 82 0
-81 -82 0
-25 -77 83 0
25 -83 0
77 -83 0
83 84 0
-83 -84 0
-82 -84 85 0
82 -85 0
84 -85 0
85 86 0
-85 -86 0
-31 -8 87 0
31 -87 0
8 -87 0
87 88 0
-87 -88 0
-6 -88 89 0
6 -89 0
88 -89 0
89 90 0
-89 -90 0
-86 -90 91 0
86 -91 0
90 -91 0
91 92 0
-91 -92 0
-24 -87 93 0
24 -93 0
87 -93 0
93 94 0
-93 -94 0
-92 -94 95 0
92 -95 0
94 -95 0
95 96 0
-95 -96 0
-61 -96 97 0
61 -97 0
96 -97 0
97 98 0
-97 -98 0
-24 -62 99 0
24 -99 0
62 -99 0
99 100 0
-99 -100 0
-98 -100 101 0
98 -101 0
100 -101 0
101 102 0
-101 -102 0
-20 -102 103 0
20 -103 0
102 -103 0
103 104 0
-103 -104 0
-86 -87 105 0
86 -105 0
87 -105 0
-24 -105 106 0
24 -106 0
105 -106 0
106 107 0
-106 -107 0
-85 -88 108 0
85 -108 0
88 -108 0
-6 -108 109 0
6 -109 0
108 -109 0
109 110 0
-109 -110 0
-95 -110 111 0
95 -111 0
110 -111 0
111 112 0
-111 -112 0
-107 -112 113 0
107 -113 0
112 -113 0
113 114 0
-113 -114 0
-61 -114 115 0
61 -115 0
114 -115 0
115 116 0
-115 -116 0
-25 -62 117 0
25 -117 0
62 -117 0
117 118 0
-117 -118 0
-116 -118 119 0
116 -119 0
118 -119 0
119 120 0
-119 -120 0
-20 -120 121 0
20 -121 0
120 -121 0
121 122 0
-121 -122 0
-76 -77 123 0
76 -123 0
77 -123 0
-25 -123 124 0
25 -124 0
123 -124 0
124 125 0
-124 -125 0
-75 -78 126 0
75 -126 0
78 -126 0
-5 -126 127 0
5 -127 0
126 -127 0
127 128 0
-127 -128 0
-85 -128 129 0
85 -129 0
128 -129 0
129 130 0
-129 -130 0
-125 -130 131 0
125 -131 0
130 -131 0
131 132 0
-131 -132 0
-61 -132 133 0
61 -133 0
132 -133 0
133 134 0
-133 -134 0
-26 -62 135 0
26 -135 0
62 -135 0
135 136 0
-135 -136 0
-134 -136 137 0
134 -137 0
136 -137 0
137 138 0
-137 -138 0
-20 -138 139 0
20 -139 0
138 -139 0
139 140 0
-139 -140 0
-65 -67 141 0
65 -141 0
67 -141 0
-26 -141 142 0
26 -142 0
141 -142 0
142 143 0
-142 -143 0
-66 -68 144 0
66 -144 0
68 -144 0
-4 -144 145 0
4 -145 0
144 -145 0
145 146 0
-145 -146 0
-75 -146 147 0
75 -147 0
146 -147 0
147 148 0
-147 -148 0
-143 -148 149 0
143 -149 0
148 -149 0
149 150 0
-149 -150 0
-61 -150 151 0
61 -151 0
150 -151 0
151 152 0
-151 -152 0
-27 -62 153 0
27 -153 0
62 -153 0
153 154 0
-153 -154 0
-152 -154 155 0
152 -155 0
154 -155 0
155 156 0
-155 -156 0
-20 -156 157 0
20 -157 0
156 -157 0
157 158 0
-157 -158 0
-15 -37 159 0
15 -159 0
37 -159 0
159 160 0
-159 -160 0
-28 -36 161 0
28 -161 0
36 -161 0
161 162 0
-161 -162 0
-160 -162 163 0
160 -163 0
162 -163 0
163 164 0
-163 -164 0
-62 -164 165 0
62 -165 0
164 -165 0
165 166 0
-165 -166 0
-3 -64 167 0
3 -167 0
64 -167 0
167 168 0
-167 -168 0
-66 -168 169 0
66 -169 0
168 -169 0
-61 -169 170 0
61 -170 0
169 -170 0
170 171 0
-170 -171 0
-166 -171 172 0
166 -172 0
171 -172 0
-14 -37 173 0
14 -173 0
37 -173 0
173 174 0
-173 -174 0
-29 -36 175 0
29 -175 0
36 -175 0
175 176 0
-175 -176 0
-174 -176 177 0
174 -177 0
176 -177 0
177 178 0
-177 -178 0
-62 -178 179 0
62 -179 0
178 -179 0
179 180 0
-179 -180 0
-28 -61 181 0
28 -181 0
61 -181 0
181 182 0
-181 -182 0
-180 -182 183 0
180 -183 0
182 -183 0
-13 -37 184 0
13 -184 0
37 -184 0
184 185 0
-184 -185 0
-30 -36 186 0
30 -186 0
36 -186 0
186 187 0
-186 -187 0
-185 -187 188 0
185 -188 0
187 -188 0
188 189 0
-188 -189 0
-62 -189 190 0
62 -190 0
189 -190 0
190 191 0
-190 -191 0
-29 -61 192 0
29 -192 0
61 -192 0
192 193 0
-192 -193 0
-191 -193 194 0
191 -194 0
193 -194 0
-12 -37 195 0
12 -195 0
37 -195 0
195 196 0
-195 -196 0
-31 -36 197 0
31 -197 0
36 -197 0
197 198 0
-197 -198 0
-196 -198 199 0
196 -199 0
198 -199 0
199 200 0
-199 -200 0
-62 -200 201 0
62 -201 0
200 -201 0
201 202 0
-201 -202 0
-30 -61 203 0
30 -203 0
61 -203 0
203 204 0
-203 -204 0
-202 -204 205 0
202 -205 0
204 -205 0
-19 -59 206 0
19 -206 0
59 -206 0
206 207 0
-206 -207 0
-8 -60 208 0
8 -208 0
60 -208 0
208 209 0
-208 -209 0
-207 -209 210 0
207 -210 0
209 -210 0
210 211 0
-210 -211 0
-18 -59 212 0
18 -212 0
59 -212 0
212 213 0
-212 -213 0
-7 -60 214 0
7 -214 0
60 -214 0
214 215 0
-214 -215 0
-213 -215 216 0
213 -216 0
215 -216 0
216 217 0
-216 -217 0
-17 -59 218 0
17 -218 0
59 -218 0
218 219 0
-218 -219 0
-6 -60 220 0
6 -220 0
60 -220 0
220 221 0
-220 -221 0
-219 -221 222 0
219 -222 0
221 -222 0
222 223 0
-222 -223 0
-16 -59 224 0
16 -224 0
59 -224 0
224 225 0
-224 -225 0
-5 -60 226 0
5 -226 0
60 -226 0
226 227 0
-226 -227 0
-225 -227 228 0
225 -228 0
227 -228 0
228 229 0
-228 -229 0
-230 172 0
230 -172 0
-231 183 0
231 -183 0
-232 158 0
232 -158 0
-233 140 0
233 -140 0
-234 122 0
234 -122 0
-235 104 0
235 -104 0
-236 57 0
236 -57 0
-237 53 0
237 -53 0
-238 45 0
238 -45 0
240 249 0
-240 -249 0
238 250 0
-238 -250 0
237 251 0
-237 -251 0
236 252 0
-236 -252 0
235 253 0
-235 -253 0
234 254 0
-234 -254 0
233 255 0
-233 -255 0
232 256 0
-232 -256 0
231 257 0
-231 -257 0
230 258 0
-230 -258 0
233 259 0
-233 -259 0
238 260 0
-238 -260 0
-237 -236 261 0
237 -261 0
236 -261 0
-238 -261 262 0
238 -262 0
261 -262 0
262 263 0
-262 -263 0
-251 -236 264 0
251 -264 0
236 -264 0
-238 -264 265 0
238 -265 0
264 -265 0
265 266 0
-265 -266 0
-261 -266 267 0
261 -267 0
266 -267 0
267 268 0
-267 -268 0
-250 -268 269 0
250 -269 0
268 -269 0
269 270 0
-269 -270 0
-238 -267 271 0
238 -271 0
267 -271 0
271 272 0
-271 -272 0
-270 -272 273 0
270 -273 0
272 -273 0
-249 -273 274 0
249 -274 0
273 -274 0
-236 -266 275 0
236 -275 0
266 -275 0
275 276 0
-275 -276 0
-251 -276 277 0
251 -277 0
276 -277 0
277 278 0
-277 -278 0
-237 -275 279 0
237 -279 0
275 -279 0
279 280 0
-279 -280 0
-278 -280 281 0
278 -281 0
280 -281 0
-249 -281 282 0
249 -282 0
281 -282 0
-252 -265 283 0
252 -283 0
265 -283 0
283 284 0
-283 -284 0
-276 -284 285 0
276 -285 0
284 -285 0
-249 -285 286 0
249 -286 0
285 -286 0
-251 -252 287 0
251 -287 0
252 -287 0
-250 -287 288 0
250 -288 0
287 -288 0
288 289 0
-288 -289 0
-266 -289 290 0
266 -290 0
289 -290 0
290 291 0
-290 -291 0
-260 -234 292 0
260 -292 0
234 -292 0
292 293 0
-292 -293 0
-256 -292 294 0
256 -294 0
292 -294 0
294 295 0
-294 -295 0
-260 -235 296 0
260 -296 0
235 -296 0
296 297 0
-296 -297 0
-233 -297 298 0
233 -298 0
297 -298 0
298 299 0
-298 -299 0
-294 -299 300 0
294 -300 0
299 -300 0
300 301 0
-300 -301 0
-255 -296 302 0
255 -302 0
296 -302 0
302 303 0
-302 -303 0
-301 -303 304 0
301 -304 0
303 -304 0
304 305 0
-304 -305 0
-260 -236 306 0
260 -306 0
236 -306 0
306 307 0
-306 -307 0
-234 -307 308 0
234 -308 0
307 -308 0
308 309 0
-308 -309 0
-305 -309 310 0
305 -310 0
309 -310 0
310 311 0
-310 -311 0
-254 -306 312 0
254 -312 0
306 -312 0
312 313 0
-312 -313 0
-311 -313 314 0
311 -314 0
313 -314 0
314 315 0
-314 -315 0
-260 -237 316 0
260 -316 0
237 -316 0
316 317 0
-316 -317 0
-235 -317 318 0
235 -318 0
317 -318 0
318 319 0
-318 -319 0
-315 -319 320 0
315 -320 0
319 -320 0
320 321 0
-320 -321 0
-253 -316 322 0
253 -322 0
316 -322 0
322 323 0
-322 -323 0
-321 -323 324 0
321 -324 0
323 -324 0
324 325 0
-324 -325 0
-290 -325 326 0
290 -326 0
325 -326 0
326 327 0
-326 -327 0
-253 -291 328 0
253 -328 0
291 -328 0
328 329 0
-328 -329 0
-327 -329 330 0
327 -330 0
329 -330 0
330 331 0
-330 -331 0
-249 -331 332 0
249 -332 0
331 -332 0
332 333 0
-332 -333 0
-315 -316 334 0
315 -334 0
316 -334 0
-253 -334 335 0
253 -335 0
334 -335 0
335 336 0
-335 -336 0
-314 -317 337 0
314 -337 0
317 -337 0
-235 -337 338 0
235 -338 0
337 -338 0
338 339 0
-338 -339 0
-324 -339 340 0
324 -340 0
339 -340 0
340 341 0
-340 -341 0
-336 -341 342 0
336 -342 0
341 -342 0
342 343 0
-342 -343 0
-290 -343 344 0
290 -344 0
343 -344 0
344 345 0
-344 -345 0
-254 -291 346 0
254 -346 0
291 -346 0
346 347 0
-346 -347 0
-345 -347 348 0
345 -348 0
347 -348 0
348 349 0
-348 -349 0
-249 -349 350 0
249 -350 0
349 -350 0
350 351 0
-350 -351 0
-305 -306 352 0
305 -352 0
306 -352 0
-254 -352 353 0
254 -353 0
352 -353 0
353 354 0
-353 -354 0
-304 -307 355 0
304 -355 0
307 -355 0
-234 -355 356 0
234 -356 0
355 -356 0
356 357 0
-356 -357 0
-314 -357 358 0
314 -358 0
357 -358 0
358 359 0
-358 -359 0
-354 -359 360 0
354 -360 0
359 -360 0
360 361 0
-360 -361 0
-290 -361 362 0
290 -362 0
361 -362 0
362 363 0
-362 -363 0
-255 -291 364 0
255 -364 0
291 -364 0
364 365 0
-364 -365 0
-363 -365 366 0
363 -366 0
365 -366 0
366 367 0
-366 -367 0
-249 -367 368 0
249 -368 0
367 -368 0
368 369 0
-368 -369 0
-294 -296 370 0
294 -370 0
296 -370 0
-255 -370 371 0
255 -371 0
370 -371 0
371 372 0
-371 -372 0
-295 -297 373 0
295 -373 0
297 -373 0
-233 -373 374 0
233 -374 0
373 -374 0
374 375 0
-374 -375 0
-304 -375 376 0
304 -376 0
375 -376 0
376 377 0
-376 -377 0
-372 -377 378 0
372 -378 0
377 -378 0
378 379 0
-378 -379 0
-290 -379 380 0
290 -380 0
379 -380 0
380 381 0
-380 -381 0
-256 -291 382 0
256 -382 0
291 -382 0
382 383 0
-382 -383 0
-381 -383 384 0
381 -384 0
383 -384 0
384 385 0
-384 -385 0
-249 -385 386 0
249 -386 0
385 -386 0
386 387 0
-386 -387 0
-244 -266 388 0
244 -388 0
266 -388 0
388 389 0
-388 -389 0
-257 -265 390 0
257 -390 0
265 -390 0
390 391 0
-390 -391 0
-389 -391 392 0
389 -392 0
391 -392 0
392 393 0
-392 -393 0
-291 -393 394 0
291 -394 0
393 -394 0
394 395 0
-394 -395 0
-232 -293 396 0
232 -396 0
293 -396 0
396 397 0
-396 -397 0
-295 -397 398 0
295 -398 0
397 -398 0
-290 -398 399 0
290 -399 0
398 -399 0
399 400 0
-399 -400 0
-395 -400 401 0
395 -401 0
400 -401 0
-243 -266 402 0
243 -402 0
266 -402 0
402 403 0
-402 -403 0
-258 -265 404 0
258 -404 0
265 -404 0
404 405 0
-404 -405 0
-403 -405 406 0
403 -406 0
405 -406 0
406 407 0
-406 -407 0
-291 -407 408 0
291 -408 0
407 -408 0
408 409 0
-408 -409 0
-257 -290 410 0
257 -410 0
290 -410 0
410 411 0
-410 -411 0
-409 -411 412 0
409 -412 0
411 -412 0
-242 -266 413 0
242 -413 0
266 -413 0
413 414 0
-413 -414 0
-259 -265 415 0
259 -415 0
265 -415 0
415 416 0
-415 -416 0
-414 -416 417 0
414 -417 0
416 -417 0
417 418 0
-417 -418 0
-291 -418 419 0
291 -419 0
418 -419 0
419 420 0
-419 -420 0
-258 -290 421 0
258 -421 0
290 -421 0
421 422 0
-421 -422 0
-420 -422 423 0
420 -423 0
422 -423 0
-241 -266 424 0
241 -424 0
266 -424 0
424 425 0
-424 -425 0
-260 -265 426 0
260 -426 0
265 -426 0
426 427 0
-426 -427 0
-425 -427 428 0
425 -428 0
427 -428 0
428 429 0
-428 -429 0
-291 -429 430 0
291 -430 0
429 -430 0
430 431 0
-430 -431 0
-259 -290 432 0
259 -432 0
290 -432 0
432 433 0
-432 -433 0
-431 -433 434 0
431 -434 0
433 -434 0
-248 -288 435 0
248 -435 0
288 -435 0
435 436 0
-435 -436 0
-237 -289 437 0
237 -437 0
289 -437 0
437 438 0
-437 -438 0
-436 -438 439 0
436 -439 0
438 -439 0
439 440 0
-439 -440 0
-247 -288 441 0
247 -441 0
288 -441 0
441 442 0
-441 -442 0
-236 -289 443 0
236 -443 0
289 -443 0
443 444 0
-443 -444 0
-442 -444 445 0
442 -445 0
444 -445 0
445 446 0
-445 -446 0
-246 -288 447 0
246 -447 0
288 -447 0
447 448 0
-447 -448 0
-235 -289 449 0
235 -449 0
289 -449 0
449 450 0
-449 -450 0
-448 -450 451 0
448 -451 0
450 -451 0
451 452 0
-451 -452 0
-245 -288 453 0
245 -453 0
288 -453 0
453 454 0
-453 -454 0
-234 -289 455 0
234 -455 0
289 -455 0
455 456 0
-455 -456 0
-454 -456 457 0
454 -457 0
456 -457 0
457 458 0
-457 -458 0
-459 401 0
459 -401 0
-460 412 0
460 -412 0
-461 387 0
461 -387 0
-462 369 0
462 -369 0
-463 351 0
463 -351 0
-464 333 0
464 -333 0
-465 286 0
465 -286 0
-466 282 0
466 -282 0
-467 274 0
467 -274 0
-1 0
-2 0
-3 0
-4 0
-5 0
-6 0
-7 0
-8 0
-9 0
401 412 387 369 351 333 286 282 274 0
